*PART, NAME=Rigid_Rect 
*Node 
1,-11.838582,-6.706973,-5.396355
2,-11.618345,-7.154901,-5.189981
3,-11.862057,-6.727906,-5.079529
4,-11.774053,-7.207460,-4.907707
5,-11.581727,-7.578918,-4.652654
6,-11.362691,-7.434761,-4.914223
7,-11.442419,-7.739748,-4.344416
8,-11.263296,-7.519719,-4.652907
9,-11.458553,-7.684848,-4.005481
10,-11.327792,-7.446316,-4.426350
11,-11.419715,-7.361038,-4.264391
12,-11.522793,-7.549435,-3.944265
13,-11.771541,-7.636767,-3.858958
14,-11.519886,-7.420915,-4.232963
15,-11.631543,-7.561875,-4.322880
16,-11.978820,-7.627331,-4.078711
17,-12.068232,-7.459314,-4.207446
18,-11.696376,-7.571569,-4.486890
19,-11.960929,-7.254655,-4.392704
20,-11.695440,-7.415097,-4.704361
21,-11.655880,-7.204382,-4.961795
22,-11.852203,-7.020931,-4.610682
23,-11.743443,-6.806551,-4.881453
24,-11.654138,-6.993467,-5.235371
25,-11.780787,-6.727532,-5.496104
26,-11.687845,-6.577511,-5.183439
27,-11.733622,-6.276311,-5.454446
28,-11.987450,-6.330274,-5.718527
29,-12.091258,-5.832955,-5.893201
30,-11.831724,-5.947345,-5.664494
31,-11.963636,-5.368972,-6.021800
32,-11.694616,-5.511369,-5.778503
33,-11.591660,-5.049018,-6.122745
34,-11.313478,-5.199837,-5.830067
35,-11.070912,-4.902899,-6.156250
36,-11.022886,-5.037995,-5.799780
37,-10.629074,-4.895160,-6.046392
38,-10.755051,-4.862441,-5.799627
39,-10.498541,-4.913991,-5.908371
40,-10.476288,-4.688920,-5.694580
41,-10.637997,-4.841885,-5.987873
42,-10.455944,-4.587799,-5.902221
43,-10.780718,-4.689056,-6.300882
44,-10.412293,-4.399989,-6.194870
45,-10.820446,-4.481809,-6.676382
46,-10.458153,-4.349912,-6.544293
47,-10.443339,-4.211635,-6.913954
48,-10.807149,-4.196723,-7.024974
49,-10.753736,-3.891130,-7.369051
50,-10.403561,-4.020728,-7.250449
51,-10.387919,-3.854775,-7.540966
52,-10.657070,-3.668705,-7.726653
53,-10.534434,-3.538275,-8.072262
54,-10.157463,-3.730095,-7.811737
55,-10.069888,-3.622671,-8.182279
56,-10.388198,-3.454141,-8.391203
57,-10.220324,-3.413698,-8.711511
58,-9.945240,-3.557516,-8.496691
59,-9.795708,-3.525926,-8.800439
60,-10.056239,-3.462039,-9.052627
61,-9.889194,-3.617588,-9.388093
62,-9.637015,-3.548627,-9.114540
63,-9.649670,-3.818038,-9.653036
64,-9.426647,-3.658704,-9.462810
65,-9.302622,-3.941635,-9.837765
66,-9.066048,-3.665578,-9.710925
67,-8.908960,-3.904135,-10.032984
68,-8.752825,-3.552494,-9.978328
69,-8.484469,-3.351342,-10.319605
70,-8.559746,-3.719441,-10.333432
71,-8.299232,-3.463288,-10.760845
72,-8.300736,-3.111554,-10.647957
73,-8.164058,-2.966095,-11.052888
74,-8.127743,-3.206704,-11.289393
75,-8.056297,-2.737091,-11.574686
76,-8.035553,-2.968179,-11.861644
77,-7.994834,-2.723099,-12.387682
78,-7.974042,-2.473225,-12.112961
79,-7.901028,-2.199467,-12.599828
80,-7.974512,-2.477153,-12.827496
81,-8.005672,-2.259331,-13.228216
82,-7.868129,-1.987915,-13.048347
83,-7.917408,-1.812670,-13.476630
84,-8.156798,-2.019217,-13.619119
85,-8.070852,-1.564241,-13.856538
86,-8.382542,-1.688234,-14.000363
87,-8.488492,-1.292963,-14.373044
88,-8.252652,-1.229129,-14.232360
89,-8.350423,-0.890413,-14.667668
90,-8.033238,-0.825852,-14.430621
91,-8.020305,-0.482850,-14.807941
92,-7.729264,-0.475048,-14.583640
93,-7.339075,-0.166143,-14.719308
94,-7.586195,-0.084071,-14.854555
95,-7.088283,0.225096,-14.938639
96,-6.873123,0.101781,-14.837751
97,-6.556316,0.398145,-15.092759
98,-6.538301,0.252201,-14.906374
99,-6.023100,0.478148,-15.274295
100,-6.190950,0.353401,-14.953964
101,-5.506326,0.537717,-15.428281
102,-5.672756,0.471139,-15.036380
103,-5.152310,0.549096,-15.104335
104,-5.028431,0.614844,-15.476597
105,-4.643365,0.763138,-15.331431
106,-4.672652,0.616655,-15.089014
107,-4.330048,1.018990,-15.029634
108,-4.353950,0.766246,-14.967490
109,-4.043393,0.988479,-14.586947
110,-3.972662,1.299850,-14.705623
111,-3.526570,1.476854,-14.388855
112,-3.617136,1.194875,-14.299073
113,-3.030297,1.461723,-14.079242
114,-3.155209,1.173873,-14.100323
115,-2.523879,1.239034,-13.844724
116,-2.597653,0.978588,-13.952757
117,-2.032314,0.884729,-13.751916
118,-2.203195,0.695483,-13.944872
119,-1.580023,0.548507,-13.867734
120,-1.810541,0.447842,-14.078676
121,-1.218936,0.357797,-14.232936
122,-1.396412,0.182340,-14.464681
123,-1.074055,-0.006841,-14.792174
124,-0.998014,0.255704,-14.721072
125,-0.793936,-0.054434,-15.066222
126,-0.865180,0.037882,-15.107918
127,-0.697135,-0.337117,-15.304589
128,-0.606507,-0.250363,-15.358361
129,-0.464200,-0.692096,-15.417382
130,-0.436627,-0.501803,-15.521491
131,-0.214556,-0.816789,-15.685562
132,-0.243452,-0.942661,-15.547082
133,-0.060080,-1.184374,-15.667157
134,-0.053284,-1.038336,-15.856676
135,0.117297,-1.506708,-15.722041
136,0.023374,-1.322398,-15.904365
137,0.168414,-1.746512,-15.952707
138,0.325518,-1.874889,-15.754509
139,0.611224,-2.181726,-15.858743
140,0.423189,-2.164145,-15.997562
141,0.945584,-2.417806,-16.004446
142,0.586251,-2.442911,-16.031817
143,1.186234,-2.670896,-16.016587
144,0.827893,-2.607623,-15.996727
145,1.221475,-2.948131,-15.856064
146,0.877980,-2.825346,-15.746427
147,1.079885,-3.215776,-15.662992
148,0.706363,-2.963722,-15.381606
149,0.718175,-3.300082,-15.271311
150,0.891725,-3.485554,-15.497922
151,0.789731,-3.773411,-15.321264
152,0.665069,-3.520989,-15.086605
153,0.856067,-4.007951,-15.134414
154,0.762928,-3.761438,-14.868283
155,1.036749,-3.934828,-14.631304
156,1.087716,-4.053625,-14.919859
157,1.384590,-3.876401,-14.580345
158,1.215887,-3.839603,-14.256000
159,1.641011,-3.644543,-14.086811
160,1.424784,-3.712429,-13.783239
161,1.596831,-3.707881,-13.348672
162,1.831213,-3.604649,-13.580049
163,1.678106,-3.955208,-13.095325
164,1.956033,-3.878806,-13.272239
165,2.008966,-4.375519,-13.248718
166,1.640693,-4.317083,-13.037650
167,1.984834,-4.837578,-13.351577
168,1.728187,-4.732003,-13.128449
169,1.757489,-4.981975,-13.105495
170,1.881973,-4.978731,-13.342527
171,1.741879,-4.690888,-13.154799
172,1.640750,-4.712440,-12.851027
173,1.470213,-4.186240,-12.615699
174,1.608987,-4.147095,-12.874989
175,1.261971,-3.709982,-12.389239
176,1.480948,-3.650610,-12.618271
177,1.343979,-3.439852,-12.495820
178,0.966423,-3.373732,-12.207896
179,1.214830,-3.502810,-12.585583
180,0.886114,-3.285903,-12.396334
181,0.810371,-3.342830,-12.693107
182,1.134822,-3.611663,-12.850952
183,0.818575,-3.418153,-13.093457
184,1.120425,-3.661381,-13.199128
185,0.878651,-3.501551,-13.519287
186,1.150348,-3.715261,-13.589721
187,0.941492,-3.592933,-13.945511
188,1.194639,-3.829973,-14.036254
189,1.185496,-3.981372,-14.530453
190,0.990084,-3.694464,-14.380488
191,0.975522,-3.772813,-14.808918
192,1.023225,-4.056942,-14.983590
193,0.760146,-3.915220,-15.287481
194,0.860123,-3.730060,-15.206277
195,0.617583,-3.568421,-15.432190
196,0.877510,-3.509308,-15.463966
197,0.849849,-3.292210,-15.609610
198,0.651091,-3.227005,-15.513646
199,0.951984,-3.039275,-15.751267
200,0.712336,-3.020640,-15.618084
201,0.896430,-2.744816,-15.830519
202,0.699637,-2.878175,-15.716102
203,0.694783,-2.482060,-15.871296
204,0.592847,-2.665366,-15.778921
205,0.393374,-2.308194,-15.851898
206,0.484643,-2.205902,-15.842214
207,0.158647,-1.827870,-15.861785
208,0.230897,-1.903487,-15.639249
209,-0.066261,-1.328706,-15.707819
210,0.013227,-1.551659,-15.559372
211,-0.315201,-0.900014,-15.439517
212,-0.183168,-1.211319,-15.278833
213,-0.601273,-0.536947,-15.138771
214,-0.435738,-0.828732,-14.960719
215,-0.870553,-0.187157,-14.808561
216,-0.746893,-0.372104,-14.610476
217,-1.067859,0.189445,-14.437723
218,-0.960573,0.051185,-14.172968
219,-1.038129,0.484568,-13.803127
220,-1.149850,0.613554,-14.054174
221,-1.067861,1.078645,-13.699337
222,-0.947027,0.946577,-13.467272
223,-0.689936,1.396199,-13.195413
224,-0.808261,1.542541,-13.412931
225,-0.404507,1.948496,-13.231931
226,-0.303231,1.791418,-13.012420
227,0.170315,2.107359,-12.836878
228,0.089319,2.270541,-13.164457
229,0.609669,2.549871,-13.166079
230,0.651379,2.457386,-12.875947
231,1.150925,2.760957,-12.898521
232,1.105351,2.858913,-13.184816
233,1.624561,3.078485,-12.945947
234,1.585082,3.196493,-13.229040
235,2.092223,3.369058,-13.031260
236,2.098944,3.484286,-13.343414
237,2.636785,3.704145,-13.515768
238,2.576747,3.584882,-13.156345
239,3.110786,3.943129,-13.646411
240,3.034027,3.755469,-13.265861
241,3.483632,4.242815,-13.653062
242,3.397679,3.945164,-13.270717
243,3.825654,4.495907,-13.567332
244,3.699400,4.151373,-13.197003
245,4.138489,4.613087,-13.435978
246,3.963115,4.329137,-13.165336
247,4.086584,4.400314,-12.929331
248,4.253362,4.672719,-13.214844
249,4.067203,4.774955,-12.844794
250,3.928638,4.502577,-12.511977
251,3.726680,4.635772,-12.091241
252,3.740493,4.901719,-12.355111
253,3.607916,4.713751,-11.609321
254,3.506739,4.991260,-11.809225
255,3.634180,4.748569,-11.088368
256,3.468196,5.035535,-11.240223
257,3.803187,4.759201,-10.582677
258,3.620718,5.057430,-10.686623
259,4.057647,4.728625,-10.162223
260,3.922203,5.032922,-10.245287
261,4.293784,4.651336,-9.866981
262,4.302745,4.897882,-10.020444
263,4.697900,4.709870,-10.000241
264,4.625423,4.632388,-9.687053
265,5.073712,4.630404,-9.731183
266,5.112891,4.657569,-10.086929
267,5.494086,4.678144,-9.826108
268,5.578664,4.759833,-10.220956
269,6.067209,4.837800,-10.322715
270,5.928003,4.754300,-9.942310
271,6.502494,4.805995,-10.279779
272,6.374193,4.776916,-10.029059
273,6.835643,4.744430,-10.081643
274,6.630954,4.738900,-9.744239
275,6.858223,4.748313,-9.469024
276,7.078321,4.701095,-9.793200
277,7.043287,4.772817,-9.125417
278,7.256952,4.670967,-9.426627
279,7.389391,4.645821,-8.980899
280,7.182964,4.774584,-8.696771
281,7.510508,4.578813,-8.542908
282,7.318772,4.724069,-8.280748
283,7.469110,4.680963,-7.916616
284,7.674940,4.445227,-8.221693
285,7.914420,4.327751,-8.048227
286,7.743537,4.535572,-7.875383
287,8.182669,4.310136,-7.970739
288,8.020006,4.510607,-7.736638
289,8.218329,4.564438,-7.521843
290,8.407288,4.314212,-7.915492
291,8.429800,4.438611,-7.472058
292,8.611445,4.217493,-7.848357
293,8.859324,4.071066,-7.769119
294,8.643040,4.262579,-7.379982
295,9.143820,4.011725,-7.675755
296,8.896683,4.134608,-7.286692
297,9.258134,4.097444,-7.140901
298,9.439488,4.062653,-7.535175
299,9.744430,4.108939,-7.305514
300,9.638630,4.072354,-6.996089
301,10.012762,4.004949,-7.022385
302,9.787635,3.927996,-6.738977
303,10.160342,3.707321,-6.762480
304,9.908627,3.669859,-6.485548
305,10.182799,3.314641,-6.496076
306,9.990944,3.373930,-6.194650
307,10.163701,2.937101,-6.141905
308,10.066059,3.059825,-5.819048
309,10.154073,2.643856,-5.753468
310,10.129068,2.757222,-5.455156
311,10.174721,2.514033,-5.514733
312,10.194452,2.526159,-5.225210
313,-11.956475,-6.765517,-4.735244
314,-12.013065,-7.308420,-4.573757
315,-11.810379,-7.808566,-4.212829
316,-11.564004,-7.935836,-3.892002
317,-11.576786,-7.890903,-3.609850
318,-11.667001,-7.752846,-3.557511
319,-11.940219,-7.733868,-3.414418
320,-12.155540,-7.614352,-3.615232
321,-12.212243,-7.473614,-3.937134
322,-12.148057,-7.144835,-3.984819
323,-11.972656,-6.867654,-4.232587
324,-11.811683,-6.647899,-4.494282
325,-11.663496,-6.436784,-4.811726
326,-11.568143,-6.182970,-5.127864
327,-11.571474,-5.868487,-5.426345
328,-11.348878,-5.542143,-5.445094
329,-11.107857,-5.283139,-5.477394
330,-10.868011,-5.037796,-5.468730
331,-10.618017,-4.789557,-5.395821
332,-10.378988,-4.516723,-5.290499
333,-10.267904,-4.365227,-5.580886
334,-10.195612,-4.238310,-5.916202
335,-10.151835,-4.143844,-6.318217
336,-10.114569,-4.061304,-6.713762
337,-10.050237,-3.948625,-7.059670
338,-9.977663,-3.817226,-7.414401
339,-9.752903,-3.677465,-7.658216
340,-9.731626,-3.628843,-7.968483
341,-9.666797,-3.583599,-8.292282
342,-9.558833,-3.535070,-8.560060
343,-9.410464,-3.480697,-8.830927
344,-9.254795,-3.451207,-9.130056
345,-9.061813,-3.417110,-9.407691
346,-8.825943,-3.328226,-9.671410
347,-8.578708,-3.168986,-9.972379
348,-8.347654,-2.955704,-10.325426
349,-8.155857,-2.727542,-10.712448
350,-8.017560,-2.503068,-11.160020
351,-7.911829,-2.258566,-11.683180
352,-7.755254,-1.918956,-12.252380
353,-7.697231,-1.722657,-12.824952
354,-7.685751,-1.581866,-13.289049
355,-7.751540,-1.412304,-13.692076
356,-7.899428,-1.142298,-14.044433
357,-7.680620,-0.792082,-14.219085
358,-7.426044,-0.507507,-14.407547
359,-7.067775,-0.233281,-14.568029
360,-6.496826,0.103837,-14.650175
361,-5.853755,0.371670,-14.687837
362,-5.318753,0.511530,-14.718227
363,-4.812317,0.592511,-14.737218
364,-4.369572,0.718462,-14.693071
365,-4.132493,0.895462,-14.300325
366,-3.715949,1.012863,-14.143073
367,-3.271341,0.951440,-14.038408
368,-2.807816,0.755369,-14.063048
369,-2.327387,0.541151,-14.124765
370,-1.932443,0.189691,-14.440842
371,-1.463859,-0.011941,-14.705212
372,-1.177219,-0.141122,-14.908120
373,-0.916569,-0.209584,-15.049771
374,-0.681164,-0.343583,-15.278719
375,-0.423406,-0.620443,-15.534664
376,-0.162081,-1.079243,-15.749012
377,-0.011921,-1.564136,-15.818906
378,0.142745,-1.974603,-15.836819
379,0.311771,-2.302125,-15.813180
380,0.536808,-2.567514,-15.769891
381,0.511295,-2.673070,-15.346977
382,0.541633,-2.816283,-15.198018
383,0.511822,-2.941507,-15.013595
384,0.565889,-3.299056,-14.841729
385,0.622986,-3.507289,-14.608066
386,0.756713,-3.657079,-14.287210
387,0.985524,-3.735468,-13.811082
388,1.182088,-3.697724,-13.408103
389,1.331820,-3.756871,-13.061578
390,1.365258,-4.062418,-12.810211
391,1.459837,-4.561575,-12.856708
392,1.579556,-4.934150,-12.908580
393,1.592599,-5.029636,-12.645524
394,1.532735,-4.705804,-12.487262
395,1.314124,-4.193746,-12.292321
396,1.044138,-3.716043,-12.060588
397,0.671446,-3.232011,-11.817036
398,0.580416,-3.069601,-12.138865
399,0.507475,-3.047105,-12.461482
400,0.500904,-3.091415,-12.935357
401,0.629281,-3.263067,-13.437106
402,0.714879,-3.366661,-13.870987
403,0.778193,-3.436978,-14.282477
404,0.821177,-3.484489,-14.674824
405,0.844827,-3.488181,-15.031443
406,0.909813,-3.415030,-15.337588
407,0.997875,-3.256171,-15.601202
408,1.017705,-2.945214,-15.710254
409,0.944049,-2.723053,-15.753286
410,0.766990,-2.503632,-15.795989
411,0.489013,-2.250989,-15.665345
412,0.261852,-2.012781,-15.400944
413,0.017805,-1.606739,-15.289518
414,-0.194627,-1.264230,-14.933825
415,-0.430134,-0.881320,-14.609673
416,-0.666819,-0.488601,-14.277862
417,-0.853539,-0.086208,-13.923719
418,-0.923520,0.349947,-13.569489
419,-0.833944,0.806935,-13.237581
420,-0.593944,1.249685,-12.966147
421,-0.235744,1.652378,-12.762367
422,0.195119,1.995972,-12.549321
423,0.666543,2.359891,-12.573186
424,1.155011,2.667503,-12.588139
425,1.618818,2.959876,-12.636028
426,2.050194,3.226602,-12.707799
427,2.470121,3.439146,-12.787569
428,2.878142,3.594138,-12.854659
429,3.234131,3.718679,-12.856181
430,3.534361,3.854130,-12.793388
431,3.830455,4.054581,-12.787738
432,3.850386,4.107568,-12.464961
433,3.789226,4.253595,-12.163060
434,3.716877,4.376220,-11.810976
435,3.687911,4.439146,-11.379475
436,3.744358,4.462009,-10.904609
437,3.876100,4.459645,-10.428450
438,4.048422,4.442849,-9.993614
439,4.266945,4.439671,-9.639701
440,4.523520,4.436522,-9.319527
441,4.951474,4.543695,-9.349938
442,5.353864,4.586577,-9.398122
443,5.750725,4.638583,-9.481296
444,6.175109,4.700977,-9.614513
445,6.393848,4.695644,-9.329723
446,6.613745,4.741094,-9.072311
447,6.797927,4.786401,-8.735555
448,6.951597,4.797774,-8.330662
449,7.112102,4.774788,-7.937732
450,7.286401,4.746939,-7.575219
451,7.656472,4.675765,-7.599967
452,7.900990,4.675246,-7.352520
453,8.150758,4.612465,-7.178470
454,8.369645,4.453137,-7.043348
455,8.584344,4.291889,-6.928166
456,8.818174,4.190836,-6.821701
457,9.005143,4.118452,-6.614729
458,9.380822,4.035820,-6.706980
459,9.526655,3.884316,-6.392922
460,9.678403,3.680403,-6.118703
461,9.820053,3.434668,-5.791472
462,9.951094,3.128802,-5.391172
463,10.078718,2.793510,-5.056164
464,10.202139,2.475805,-4.892406
465,-12.088970,-6.786466,-4.383745
466,-12.260073,-7.156943,-4.317437
467,-12.241870,-7.561080,-4.201294
468,-11.733284,-7.937463,-3.178929
469,-11.664821,-8.033426,-3.365387
470,-11.925926,-7.856908,-3.056923
471,-12.182625,-7.709449,-3.012386
472,-12.282147,-7.456613,-3.214172
473,-12.264131,-7.302584,-3.578104
474,-12.116317,-6.934578,-3.449253
475,-11.959629,-6.730915,-3.774777
476,-11.777145,-6.518143,-4.062347
477,-11.594933,-6.320544,-4.383759
478,-11.435938,-6.106640,-4.720974
479,-11.349024,-5.848494,-5.065070
480,-11.133733,-5.562894,-5.048283
481,-10.935812,-5.287146,-5.061537
482,-10.726157,-5.001180,-5.031103
483,-10.503229,-4.706638,-4.954462
484,-10.268425,-4.392730,-4.865847
485,-10.134586,-4.202210,-5.202488
486,-10.013054,-4.049626,-5.563635
487,-9.919983,-3.937256,-5.986455
488,-9.843557,-3.841904,-6.411104
489,-9.752892,-3.740277,-6.766521
490,-9.640204,-3.633053,-7.073201
491,-9.514385,-3.532101,-7.388986
492,-9.416926,-3.463201,-7.761134
493,-9.394873,-3.461292,-8.147633
494,-9.428866,-3.496876,-8.376911
495,-9.237856,-3.371411,-8.491941
496,-9.089800,-3.297079,-8.842869
497,-8.957970,-3.228213,-9.094783
498,-8.787793,-3.120073,-9.316068
499,-8.572923,-2.962857,-9.572091
500,-8.342837,-2.765458,-9.898615
501,-8.115619,-2.527713,-10.240302
502,-7.918350,-2.278272,-10.600834
503,-7.786488,-2.065226,-11.079418
504,-7.447076,-1.450389,-12.586940
505,-7.451658,-1.532293,-12.056568
506,-7.409350,-1.338623,-13.057230
507,-7.415777,-1.234768,-13.476061
508,-7.517971,-1.055592,-13.848694
509,-7.300399,-0.748524,-14.012151
510,-7.100038,-0.492689,-14.211547
511,-6.824740,-0.246341,-14.356973
512,-6.455260,-0.012457,-14.297977
513,-5.983008,0.276820,-14.354323
514,-5.468726,0.474243,-14.367828
515,-5.002549,0.600738,-14.370800
516,-4.551349,0.726151,-14.368744
517,-4.353034,0.893196,-14.061298
518,-3.885875,0.993191,-13.904358
519,-3.338720,0.888141,-13.900462
520,-2.872895,0.650776,-14.013730
521,-2.393463,0.355582,-14.275275
522,-2.076775,0.115092,-14.534480
523,-1.765514,0.003697,-14.670429
524,-1.382000,-0.129140,-14.856884
525,-1.107788,-0.238323,-15.015666
526,-0.891012,-0.388238,-15.110407
527,-0.650069,-0.643300,-15.242238
528,-0.417716,-0.986889,-15.352820
529,-0.219128,-1.379298,-15.407118
530,-0.060645,-1.746254,-15.399214
531,0.086641,-2.060631,-15.347943
532,0.270794,-2.361963,-15.331788
533,0.268042,-2.446536,-14.920563
534,0.427269,-2.699361,-15.040833
535,0.302717,-2.638996,-14.704109
536,0.372404,-2.910868,-14.556404
537,0.489026,-3.240419,-14.393909
538,0.428279,-3.197496,-13.917518
539,0.934649,-3.603038,-12.954057
540,0.761093,-3.553077,-13.259705
541,1.061199,-3.742350,-12.675434
542,1.081730,-3.983907,-12.365581
543,1.239713,-4.388461,-12.452388
544,1.399326,-4.845312,-12.545326
545,1.411839,-5.035288,-12.167173
546,1.175582,-4.143323,-11.857917
547,1.426361,-4.615337,-12.042475
548,0.894461,-3.690379,-11.629586
549,0.594116,-3.245642,-11.344922
550,0.244118,-2.734290,-12.168284
551,0.295682,-2.779562,-11.838550
552,0.207011,-2.697200,-12.544310
553,0.418845,-2.997095,-13.393365
554,0.533799,-3.136222,-13.798420
555,0.604559,-3.193297,-14.194791
556,0.661789,-3.220829,-14.578692
557,0.716397,-3.218718,-14.923131
558,0.802280,-3.174815,-15.208023
559,0.933448,-3.087628,-15.467421
560,0.901191,-2.821471,-15.561816
561,0.828219,-2.653530,-15.641000
562,0.650228,-2.500640,-15.570469
563,0.454210,-2.306334,-15.453028
564,0.317256,-2.156688,-15.184764
565,0.077516,-1.747095,-15.039567
566,-0.120249,-1.406951,-14.684257
567,-0.345049,-1.019736,-14.363895
568,-0.573917,-0.630522,-14.038605
569,-0.757747,-0.221944,-13.687729
570,-0.828624,0.218490,-13.326888
571,-0.754275,0.673775,-12.986517
572,-0.542640,1.119988,-12.703432
573,-0.219498,1.538191,-12.477657
574,0.176324,1.901472,-12.229992
575,0.649192,2.276108,-12.247816
576,1.134490,2.585198,-12.260593
577,1.572338,2.854143,-12.320513
578,1.938480,3.075544,-12.370795
579,2.289674,3.261846,-12.393486
580,2.643056,3.417866,-12.411246
581,2.964895,3.532835,-12.389843
582,3.255559,3.636159,-12.329170
583,3.560615,3.804602,-12.340378
584,3.583894,3.897155,-12.032112
585,3.620463,4.036818,-11.792649
586,3.637954,4.133073,-11.488731
587,3.662413,4.181938,-11.110108
588,3.706540,4.193615,-10.669149
589,3.777628,4.188122,-10.198680
590,3.891489,4.192950,-9.745266
591,4.070526,4.224390,-9.342434
592,4.263774,4.241597,-8.945929
593,4.720356,4.384699,-8.917043
594,5.129813,4.459862,-8.926861
595,5.505353,4.509757,-8.954761
596,5.921676,4.587194,-9.096958
597,6.124622,4.604093,-8.817032
598,6.340200,4.658979,-8.574401
599,6.523400,4.705514,-8.246543
600,6.700927,4.731014,-7.873940
601,6.887135,4.733857,-7.508711
602,7.056947,4.727494,-7.209528
603,7.428465,4.724555,-7.157110
604,7.751420,4.685285,-6.920520
605,8.024550,4.580152,-6.755329
606,8.251652,4.427309,-6.600272
607,8.471844,4.289519,-6.482376
608,8.681075,4.195780,-6.406964
609,8.805802,4.127498,-6.266783
610,9.072840,4.024379,-6.226547
611,9.269707,3.866416,-5.930431
612,9.446345,3.686106,-5.644081
613,9.610501,3.452076,-5.276296
614,9.774086,3.130106,-4.759548
615,10.036106,2.743146,-4.514050
616,10.184670,2.417327,-4.417820
617,10.208823,2.137404,-4.338747
618,10.257442,2.171629,-4.749873
619,10.307407,2.295511,-5.220831
620,10.432847,2.361293,-5.461251
621,10.236213,2.543370,-5.571503
622,10.401016,2.621511,-5.621829
623,10.292597,2.686808,-5.881323
624,10.291311,3.008528,-6.238274
625,10.247139,3.052937,-5.801329
626,10.080943,3.469138,-6.130888
627,10.215041,3.475087,-6.498355
628,10.073912,3.899864,-6.694583
629,9.894119,3.840806,-6.375944
630,9.671943,4.111651,-6.684045
631,9.887777,4.145358,-6.911588
632,9.299711,4.220375,-6.975508
633,9.652144,4.206874,-7.171834
634,9.343880,4.163366,-7.458041
635,9.032953,4.269953,-7.266804
636,8.977554,4.136330,-7.770311
637,8.818250,4.296229,-7.591336
638,8.609525,4.238329,-8.117179
639,8.531287,4.484268,-7.791958
640,8.304863,4.518577,-8.453185
641,8.388999,4.656481,-8.049267
642,8.130851,4.943857,-8.674569
643,8.272618,4.990800,-8.252217
644,8.174583,5.408244,-8.722717
645,8.280308,5.395842,-8.423368
646,8.428847,5.785930,-8.595894
647,8.498406,5.727003,-8.236694
648,8.690459,6.035534,-8.303208
649,8.617989,5.881187,-8.122924
650,8.770143,6.211960,-7.885911
651,8.614809,5.973458,-7.886447
652,8.709632,6.377910,-7.434110
653,8.539152,6.111938,-7.441308
654,8.640859,6.558314,-7.035251
655,8.491913,6.299443,-7.064567
656,8.609420,6.742889,-6.725805
657,8.427295,6.472831,-6.677270
658,8.336148,6.632313,-6.296222
659,8.583934,6.916545,-6.487734
660,8.261722,6.799841,-5.997772
661,8.528252,7.086416,-6.279574
662,8.198318,6.907059,-5.725494
663,8.484004,7.241047,-6.055730
664,8.569673,7.323492,-5.794416
665,8.340707,7.120771,-5.554690
666,8.844210,7.337751,-5.577050
667,8.474250,7.207755,-5.214643
668,8.940695,7.391850,-5.142007
669,8.590690,7.300134,-4.880997
670,9.241973,7.357379,-5.531997
671,9.276877,7.501365,-5.161958
672,-11.816943,-8.044506,-3.593386
673,-12.174375,-7.898961,-3.778830
674,-7.659044,-1.837380,-11.614598
675,-7.511221,-1.707849,-10.971708
676,9.929218,7.171682,-5.492481
677,9.845632,7.423321,-5.311608
678,9.644483,7.340954,-5.592988
679,9.546103,7.520113,-5.266800
680,9.741152,7.578839,-4.885949
681,9.424475,7.611646,-4.974956
682,9.640536,7.736138,-4.336397
683,9.308354,7.676089,-4.569039
684,9.504915,7.863660,-3.820720
685,9.267386,7.790752,-4.045211
686,9.407641,7.971666,-3.284077
687,9.135781,7.832812,-3.527466
688,9.370536,8.073579,-2.718403
689,9.056395,7.893851,-2.834622
690,9.378638,8.159011,-2.162363
691,9.105529,7.994781,-2.173542
692,9.429332,8.232671,-1.624312
693,9.174405,8.052355,-1.595319
694,9.533769,8.295839,-1.095321
695,9.296696,8.096890,-1.034710
696,9.697223,8.343938,-0.573349
697,9.473619,8.128691,-0.496037
698,9.708855,8.144825,0.024712
699,9.921307,8.378480,-0.064273
700,10.210501,8.402078,0.421438
701,10.012665,8.152057,0.527634
702,10.561563,8.423459,0.858396
703,10.391969,8.163286,0.992076
704,10.961645,8.437497,1.238600
705,10.763541,8.217143,1.310488
706,11.423060,8.466463,1.569081
707,11.163275,8.186236,1.653280
708,11.956516,8.541328,1.831728
709,11.678739,8.210573,1.950150
710,12.321288,8.307461,2.165332
711,12.431276,8.634903,1.970781
712,12.978709,8.333295,2.334153
713,12.907617,8.633883,2.104849
714,13.598703,8.371395,2.354142
715,13.461655,8.645842,2.172438
716,14.033521,8.666811,2.127300
717,14.240396,8.395216,2.266232
718,13.736826,8.065034,2.495175
719,14.431781,8.110275,2.383963
720,13.888819,7.745246,2.604806
721,14.607528,7.812395,2.486217
722,14.767974,7.502085,2.574824
723,14.052375,7.421659,2.695318
724,14.218486,7.094938,2.769026
725,14.912338,7.181242,2.647835
726,15.040938,6.851062,2.705999
727,14.379672,6.763442,2.825589
728,14.527976,6.426948,2.868910
729,15.157480,6.509955,2.755804
730,15.265748,6.156265,2.803846
731,14.658373,6.084107,2.903865
732,15.359364,5.797056,2.839464
733,14.767118,5.736097,2.931453
734,14.848162,5.388537,2.944334
735,15.431463,5.439749,2.851206
736,15.486077,5.082309,2.846142
737,14.903516,5.040816,2.941036
738,14.948064,4.689313,2.930559
739,15.531628,4.718919,2.837138
740,15.572360,4.347220,2.829894
741,15.003349,4.338453,2.922287
742,15.600654,3.974706,2.813728
743,15.032154,3.986367,2.909414
744,15.613792,3.604700,2.784163
745,15.040429,3.632133,2.882735
746,15.619583,3.231540,2.751450
747,15.050130,3.283534,2.851074
748,15.614806,2.858619,2.712240
749,15.036832,2.935572,2.821920
750,15.014476,2.582054,2.791854
751,15.596861,2.488843,2.662719
752,15.574053,2.115996,2.612635
753,14.993284,2.222473,2.761492
754,15.542436,1.743782,2.557979
755,14.971156,1.859623,2.731016
756,14.939765,1.500086,2.693890
757,15.493048,1.379993,2.488534
758,15.430394,1.021361,2.409451
759,14.900000,1.143685,2.649603
760,15.364595,0.660093,2.331808
761,14.859225,0.783727,2.599484
762,15.300116,0.292961,2.260224
763,14.829766,0.417049,2.546331
764,15.226735,-0.071582,2.184001
765,14.806420,0.056315,2.495914
766,15.141001,-0.430404,2.099266
767,14.763876,-0.285716,2.448642
768,15.057371,-0.794643,2.020660
769,14.701522,-0.624015,2.406513
770,14.975634,-1.163993,1.948229
771,14.636335,-0.978369,2.370037
772,14.878556,-1.524740,1.864767
773,14.568647,-1.346152,2.327004
774,14.491450,-1.717004,2.266258
775,14.765632,-1.876231,1.769677
776,14.650399,-2.228898,1.676513
777,14.407246,-2.092031,2.190715
778,14.314363,-2.472574,2.108895
779,14.529965,-2.580476,1.582691
780,14.198867,-2.847289,2.021521
781,14.399745,-2.927178,1.483669
782,14.057757,-3.207312,1.927248
783,14.266941,-3.274350,1.386433
784,13.897765,-3.550580,1.823343
785,14.128355,-3.619593,1.288076
786,13.721747,-3.876539,1.706951
787,13.980287,-3.959892,1.185090
788,13.829785,-4.300369,1.084276
789,13.540226,-4.192806,1.585882
790,13.673803,-4.638835,0.982811
791,13.361327,-4.507283,1.467149
792,13.508658,-4.972367,0.877311
793,13.180649,-4.819177,1.347432
794,13.341003,-5.305642,0.774233
795,12.999128,-5.129501,1.227722
796,13.168070,-5.636784,0.670939
797,12.818197,-5.440313,1.110611
798,12.986326,-5.963047,0.564247
799,12.631602,-5.748049,0.991296
800,12.801831,-6.288506,0.460155
801,12.440785,-6.053177,0.870920
802,12.611564,-6.611291,0.355583
803,12.248553,-6.359299,0.755115
804,12.412420,-6.929008,0.247827
805,12.050032,-6.664719,0.641505
806,12.213872,-7.247431,0.146847
807,11.848308,-6.969356,0.530552
808,12.015984,-7.566710,0.052636
809,11.648392,-7.274710,0.425728
810,11.806587,-7.879227,-0.047337
811,11.443140,-7.577168,0.321903
812,11.584719,-8.184039,-0.153635
813,11.226591,-7.873638,0.213942
814,11.359663,-8.486706,-0.256375
815,11.004529,-8.166621,0.106362
816,11.130178,-8.786770,-0.357201
817,10.780260,-8.458487,0.004120
818,10.892655,-9.081704,-0.459472
819,10.549456,-8.747084,-0.096174
820,10.651045,-9.373311,-0.558306
821,10.313697,-9.031478,-0.195530
822,10.404267,-9.661369,-0.655461
823,10.075203,-9.312730,-0.291895
824,10.149702,-9.944093,-0.753414
825,9.830425,-9.590309,-0.386650
826,9.890519,-10.222398,-0.847556
827,9.580300,-9.864188,-0.478451
828,9.626144,-10.496538,-0.939456
829,9.326663,-10.134965,-0.565418
830,9.354337,-10.765068,-1.031385
831,9.066684,-10.401174,-0.649613
832,9.077300,-11.027847,-1.119130
833,8.801085,-10.661859,-0.729802
834,8.795080,-11.285684,-1.204006
835,8.532138,-10.918551,-0.804002
836,8.505894,-11.537514,-1.288051
837,8.257889,-11.171608,-0.874071
838,8.210890,-11.782048,-1.367461
839,7.977691,-11.419888,-0.940071
840,7.910828,-12.020692,-1.443298
841,7.693649,-11.663971,-1.002931
842,7.604474,-12.252843,-1.517371
843,7.406133,-11.904594,-1.064320
844,7.291802,-12.475913,-1.586261
845,7.113717,-12.140574,-1.121197
846,6.974329,-12.691931,-1.650732
847,6.817286,-12.372981,-1.172154
848,6.651454,-12.900804,-1.712372
849,6.517993,-12.604498,-1.217974
850,6.321876,-13.098519,-1.768126
851,6.212507,-12.833196,-1.257484
852,5.898333,-13.056830,-1.292071
853,5.987883,-13.287687,-1.818358
854,5.573734,-13.271241,-1.318093
855,5.649935,-13.469409,-1.864880
856,5.232413,-13.466733,-1.329596
857,5.305712,-13.638928,-1.905653
858,4.881222,-13.653758,-1.372662
859,4.957820,-13.799041,-1.940382
860,4.546916,-13.858689,-1.560637
861,4.607531,-13.951789,-1.970838
862,4.152425,-13.954782,-1.426066
863,4.251799,-14.092261,-1.996506
864,3.775468,-14.070241,-1.434502
865,3.893362,-14.223342,-2.016434
866,3.404425,-14.174687,-1.477694
867,3.533918,-14.347391,-2.031778
868,3.169801,-14.459263,-2.043355
869,3.031600,-14.255450,-1.506397
870,2.803856,-14.562019,-2.049663
871,2.661296,-14.322762,-1.523847
872,2.292350,-14.379886,-1.539805
873,2.438104,-14.658222,-2.051191
874,2.068348,-14.742450,-2.049940
875,1.922449,-14.427491,-1.552868
876,1.697482,-14.817890,-2.043890
877,1.554715,-14.471563,-1.559426
878,1.188025,-14.511173,-1.564195
879,1.327793,-14.887279,-2.032892
880,0.954684,-14.944931,-2.020055
881,0.821250,-14.546121,-1.567642
882,0.581040,-14.994117,-2.002866
883,0.457159,-14.580786,-1.564637
884,0.092834,-14.610857,-1.558399
885,0.209361,-15.037722,-1.980574
886,-0.165214,-15.069819,-1.957325
887,-0.273443,-14.632499,-1.548374
888,-0.539861,-15.093753,-1.930144
889,-0.637349,-14.649281,-1.527703
890,-1.001060,-14.659351,-1.500544
891,-0.911928,-15.112518,-1.897704
892,-1.286398,-15.119976,-1.865131
893,-1.367009,-14.660938,-1.470591
894,-1.660566,-15.119500,-1.829016
895,-1.730813,-14.658171,-1.434230
896,-2.093976,-14.649118,-1.395139
897,-2.031677,-15.114187,-1.787491
898,-2.404698,-15.097721,-1.746596
899,-2.458837,-14.631682,-1.355110
900,-2.777097,-15.073485,-1.702527
901,-2.821488,-14.610031,-1.309069
902,-3.183529,-14.582574,-1.259645
903,-3.146069,-15.044652,-1.652911
904,-3.516431,-15.004764,-1.604624
905,-3.546905,-14.547550,-1.207625
906,-3.885874,-14.957192,-1.553501
907,-3.907466,-14.508288,-1.148023
908,-4.266927,-14.461121,-1.086977
909,-4.251605,-14.905170,-1.496697
910,-4.618149,-14.842113,-1.441876
911,-4.627793,-14.404836,-1.026955
912,-4.983477,-14.771376,-1.384544
913,-4.986461,-14.345414,-0.959479
914,-5.343783,-14.279430,-0.888913
915,-5.344857,-14.696229,-1.321419
916,-5.706385,-14.609997,-1.260882
917,-5.701687,-14.203453,-0.820846
918,-6.066367,-14.516005,-1.198147
919,-6.057342,-14.122318,-0.748572
920,-6.411773,-14.033829,-0.674409
921,-6.422188,-14.417527,-1.129529
922,-6.777372,-14.307856,-1.064066
923,-6.766501,-13.936899,-0.600816
924,-7.130615,-14.190251,-0.996716
925,-7.118321,-13.837118,-0.520149
926,-7.468108,-13.730951,-0.437536
927,-7.479466,-14.067984,-0.923429
928,-7.826743,-13.934331,-0.853834
929,-7.818557,-13.615996,-0.358660
930,-8.171576,-13.792476,-0.782673
931,-8.167124,-13.498176,-0.275265
932,-8.513707,-13.374877,-0.189959
933,-8.511732,-13.645675,-0.705564
934,-8.849164,-13.487227,-0.632667
935,-8.859730,-13.242223,-0.108868
936,-9.183491,-13.320222,-0.558539
937,-9.202998,-13.106369,-0.024695
938,-9.544741,-12.967651,0.059332
939,-9.512740,-13.147877,-0.478517
940,-9.837870,-12.963567,-0.403212
941,-9.887969,-12.823362,0.136955
942,-10.159038,-12.770334,-0.326925
943,-10.230521,-12.677477,0.215575
944,-10.571658,-12.529501,0.289199
945,-10.474516,-12.571235,-0.244977
946,-10.783824,-12.359027,-0.169776
947,-10.914771,-12.379559,0.343809
948,-11.087843,-12.137008,-0.094828
949,-11.258532,-12.222424,0.381867
950,-11.590603,-12.027135,0.416783
951,-11.387112,-11.913171,-0.005747
952,-11.886665,-11.765493,0.475176
953,-11.680968,-11.683784,0.091009
954,-12.124689,-11.426152,0.570275
955,-11.966392,-11.440442,0.179854
956,-12.240375,-11.178975,0.252470
957,-12.306405,-11.043348,0.687455
958,-12.462560,-10.663782,0.775987
959,-12.506165,-10.907452,0.324493
960,-12.628110,-10.299952,0.808171
961,-12.767646,-10.633864,0.411664
962,-12.810320,-9.958205,0.800235
963,-13.022296,-10.354071,0.505806
964,-13.262879,-10.060394,0.590533
965,-13.002930,-9.638879,0.762157
966,-13.484007,-9.749914,0.657599
967,-13.193507,-9.330558,0.707480
968,-13.692818,-9.430665,0.722787
969,-13.378606,-9.025123,0.651778
970,-13.896384,-9.107430,0.800278
971,-13.569353,-8.731777,0.611691
972,-14.090589,-8.771500,0.881168
973,-13.765487,-8.445523,0.594743
974,-14.270751,-8.415889,0.956795
975,-13.951683,-8.139576,0.605598
976,-13.441398,-8.125556,0.167969
977,-13.688369,-7.841101,0.219918
978,-13.329796,-7.722710,-0.186072
979,-13.057393,-7.914572,-0.311934
980,-13.011959,-7.539356,-0.607928
981,-12.790558,-7.768847,-0.734374
982,-12.618336,-7.744656,-1.113180
983,-12.717004,-7.436643,-1.099462
984,-12.533450,-7.371788,-1.567935
985,-12.529270,-7.667313,-1.492017
986,-12.435292,-7.270570,-1.930223
987,-12.431685,-7.634232,-1.933190
988,-12.349559,-7.207021,-2.372191
989,-12.377412,-7.601054,-2.371516
990,-12.319178,-7.122323,-2.804564
991,-12.390062,-7.536177,-2.806255
992,-12.309603,-7.004660,-3.215032
993,-12.447936,-7.423905,-3.217070
994,-12.274182,-6.894269,-3.618833
995,-12.464196,-7.312670,-3.607941
996,-12.200357,-6.812720,-4.015253
997,-12.386921,-7.237755,-3.996264
998,10.455765,2.197872,-5.259279
999,10.486342,2.442533,-5.350231
1000,10.341412,2.858762,-5.387608
1001,9.752122,3.780396,-5.974438
1002,9.537227,4.009454,-6.224211
1003,9.291250,4.161642,-6.494711
1004,9.025045,4.258463,-6.733655
1005,8.926397,4.309339,-7.015881
1006,8.709798,4.393495,-7.231371
1007,8.490591,4.548341,-7.435406
1008,8.345981,4.773757,-7.639657
1009,8.303914,5.005310,-7.854046
1010,8.331725,5.426253,-7.860036
1011,8.508814,5.764681,-7.944306
1012,9.933311,3.507741,-5.699475
1013,10.044112,3.281552,-5.358486
1014,8.956256,7.500035,-4.696231
1015,8.964882,7.629737,-4.070473
1016,8.865061,7.681158,-3.378942
1017,8.814614,7.702750,-2.859167
1018,8.871048,7.786297,-2.330308
1019,8.943042,7.836845,-1.729846
1020,9.071241,7.836662,-1.056064
1021,9.303239,7.888247,-0.425856
1022,9.552507,7.897550,0.110415
1023,9.858271,7.891326,0.614212
1024,10.243014,7.881549,1.095985
1025,10.765757,7.923971,1.551512
1026,11.297055,7.947062,1.922788
1027,11.772477,7.907985,2.179200
1028,12.412780,7.953986,2.395723
1029,13.072226,8.020655,2.508150
1030,8.410731,5.807146,-7.542792
1031,8.310025,6.020194,-6.974887
1032,8.191024,6.196703,-6.457708
1033,8.104777,6.382256,-6.058844
1034,8.030469,6.565225,-5.704870
1035,8.012337,6.761376,-5.407152
1036,8.071945,6.946963,-5.142894
1037,8.184805,7.085732,-4.868531
1038,8.315184,7.183901,-4.587057
1039,8.655056,7.379297,-4.444113
1040,8.384508,7.227710,-4.222934
1041,0.262717,-2.770909,-12.982856
1042,0.086622,-2.488947,-12.715711
1043,1.536036,-5.010123,-12.166375
1044,1.395174,-5.078029,-11.754486
1045,0.594297,-3.456361,-13.613143
1046,0.314507,-3.060833,-13.395073
1047,0.312821,-2.815602,-11.459207
1048,0.289579,-2.821007,-11.035540
1049,13.173377,7.683436,2.626227
1050,13.325242,7.332703,2.724994
1051,13.527390,6.994068,2.812087
1052,13.718713,6.662156,2.874356
1053,13.897433,6.328417,2.919276
1054,14.052165,5.992391,2.951529
1055,14.177513,5.655700,2.973689
1056,14.269483,5.321418,2.984859
1057,14.328093,4.990182,2.981561
1058,14.370987,4.657129,2.967308
1059,14.442173,4.324547,2.955157
1060,14.566001,4.043589,2.948182
1061,14.408935,3.715937,2.911543
1062,14.460552,3.350471,2.881399
1063,14.452493,3.013242,2.859539
1064,14.427619,2.674954,2.847291
1065,14.400904,2.328931,2.838227
1066,14.381458,1.974840,2.829865
1067,14.361238,1.619337,2.818466
1068,14.340614,1.263349,2.805991
1069,14.325402,0.900510,2.791603
1070,14.332663,0.528656,2.765058
1071,14.368538,0.178424,2.726644
1072,14.354620,-0.123166,2.704280
1073,14.286854,-0.426257,2.699633
1074,14.227621,-0.764062,2.694611
1075,14.173501,-1.125134,2.684057
1076,14.122128,-1.507351,2.658095
1077,14.066130,-1.899859,2.610476
1078,13.996599,-2.296110,2.542861
1079,13.899416,-2.687079,2.465271
1080,13.764098,-3.059261,2.380418
1081,13.596739,-3.404758,2.280998
1082,13.409403,-3.724717,2.163202
1083,13.212881,-4.027050,2.033347
1084,13.017699,-4.321545,1.900172
1085,12.826296,-4.614409,1.767456
1086,12.636604,-4.907308,1.635714
1087,12.448565,-5.200730,1.505942
1088,12.259582,-5.493931,1.377267
1089,12.067164,-5.785425,1.247871
1090,11.872858,-6.076909,1.121120
1091,11.675935,-6.370443,1.000641
1092,11.475621,-6.665023,0.884738
1093,11.274314,-6.959055,0.771937
1094,11.070349,-7.251178,0.661897
1095,10.859260,-7.540194,0.552990
1096,10.642001,-7.826143,0.444847
1097,10.421704,-8.109995,0.340287
1098,10.197242,-8.392069,0.240834
1099,9.967758,-8.671199,0.143800
1100,9.735022,-8.946675,0.048103
1101,9.498372,-9.219104,-0.044265
1102,9.257155,-9.489222,-0.131776
1103,9.012559,-9.756762,-0.213965
1104,8.763156,-10.020418,-0.290758
1105,8.507896,-10.279125,-0.361939
1106,8.248961,-10.533892,-0.426319
1107,7.986666,-10.786132,-0.483748
1108,7.719760,-11.036047,-0.536318
1109,7.449379,-11.284310,-0.586843
1110,7.177097,-11.531433,-0.636311
1111,6.902501,-11.777500,-0.681779
1112,6.624951,-12.023752,-0.720764
1113,6.345415,-12.272239,-0.752612
1114,6.061711,-12.522883,-0.777551
1115,5.768344,-12.773176,-0.798563
1116,5.459716,-13.015130,-0.812733
1117,5.128232,-13.234718,-0.809754
1118,4.779147,-13.442604,-0.828490
1119,4.445094,-13.681681,-1.001029
1120,4.029324,-13.751141,-0.878289
1121,3.641770,-13.847269,-0.910491
1122,3.263505,-13.925679,-0.966874
1123,2.887339,-13.976396,-1.004242
1124,2.515485,-14.011843,-1.033514
1125,2.146742,-14.038346,-1.062155
1126,1.779975,-14.059193,-1.086201
1127,1.415974,-14.077260,-1.105803
1128,1.054960,-14.093010,-1.124232
1129,0.696693,-14.109547,-1.139105
1130,0.339197,-14.129214,-1.150923
1131,-0.019686,-14.149534,-1.161123
1132,-0.377657,-14.167571,-1.162100
1133,-0.733476,-14.178775,-1.148945
1134,-1.089820,-14.181265,-1.126751
1135,-1.446167,-14.178191,-1.098317
1136,-1.801240,-14.171400,-1.063853
1137,-2.156811,-14.160328,-1.025982
1138,-2.512425,-14.144972,-0.984129
1139,-2.867136,-14.125359,-0.937434
1140,-3.222442,-14.100891,-0.886624
1141,-3.577482,-14.071907,-0.829465
1142,-3.931359,-14.036661,-0.767051
1143,-4.285755,-13.993599,-0.703342
1144,-4.640111,-13.946197,-0.634977
1145,-4.993385,-13.895167,-0.559835
1146,-5.346908,-13.836602,-0.483662
1147,-5.700490,-13.770704,-0.407581
1148,-6.053525,-13.698598,-0.329156
1149,-6.407095,-13.619507,-0.249034
1150,-6.760383,-13.535672,-0.164996
1151,-7.112178,-13.447415,-0.076418
1152,-7.464438,-13.352403,0.011539
1153,-7.817480,-13.253481,0.099598
1154,-8.169948,-13.153354,0.191713
1155,-8.522917,-13.047832,0.283175
1156,-8.875645,-12.936149,0.371813
1157,-9.227230,-12.823695,0.461167
1158,-9.581170,-12.712313,0.548624
1159,-9.938732,-12.601392,0.632223
1160,-10.297398,-12.488696,0.711333
1161,-10.657872,-12.373502,0.775401
1162,-11.020691,-12.256867,0.811034
1163,-11.377244,-12.116535,0.811147
1164,-11.703676,-11.912187,0.786979
1165,-11.967960,-11.611412,0.771488
1166,-12.171642,-11.162108,0.791860
1167,-12.298097,-10.780055,0.895633
1168,-12.378383,-10.381007,0.905042
1169,-12.464943,-9.959822,0.866207
1170,-12.576101,-9.572082,0.780934
1171,-12.744142,-9.254688,0.694276
1172,-12.910715,-8.982448,0.590837
1173,-13.070875,-8.699458,0.439223
1174,-13.261389,-8.432954,0.300558
1175,-12.977454,-8.220527,-0.086196
1176,-12.734132,-8.084594,-0.494999
1177,-12.568898,-8.021827,-0.922788
1178,-12.485444,-8.007057,-1.369370
1179,-12.440497,-7.999476,-1.816922
1180,-12.416074,-7.971291,-2.252111
1181,-12.447276,-7.897929,-2.670496
1182,-12.522510,-7.786636,-3.070680
1183,-12.555744,-7.682603,-3.442501
1184,-12.455829,-7.628649,-3.809571
1185,8.204614,5.561889,-7.176725
1186,8.086374,5.755291,-6.638314
1187,7.997402,5.966111,-6.207030
1188,7.907320,6.169443,-5.806002
1189,7.827506,6.373331,-5.421920
1190,7.794816,6.580996,-5.077144
1191,7.838221,6.772007,-4.763400
1192,7.977189,6.944392,-4.423910
1193,8.173922,7.107436,-4.351087
1194,8.126728,7.050516,-4.044333
1195,8.401808,7.243467,-3.731702
1196,8.141449,7.021144,-3.542944
1197,8.657291,7.436572,-3.888458
1198,10.353446,2.065384,-4.890031
1199,10.453820,2.262572,-4.947619
1200,10.376435,2.677366,-4.974149
1201,10.091199,3.116249,-4.961644
1202,9.709092,3.477349,-4.954293
1203,9.671290,3.605217,-5.292448
1204,9.565145,3.764839,-5.575237
1205,9.391110,3.938207,-5.815011
1206,9.177301,4.092992,-6.057041
1207,8.908333,4.238007,-6.370792
1208,8.801056,4.316494,-6.700803
1209,8.389454,4.545679,-6.964695
1210,8.679413,4.385732,-6.922394
1211,8.206816,4.792831,-7.164986
1212,8.178425,5.121956,-7.326690
1213,12.571595,7.676114,2.536891
1214,12.503186,7.249629,2.599964
1215,12.841143,6.868739,2.745775
1216,13.082985,6.534281,2.828241
1217,13.288767,6.207916,2.880564
1218,13.463298,5.880779,2.916705
1219,13.609284,5.561015,2.943191
1220,13.703533,5.241111,2.952747
1221,13.762235,4.918128,2.944747
1222,13.822194,4.604741,2.928248
1223,13.910227,4.301180,2.914900
1224,14.084780,4.002735,2.915537
1225,13.857125,3.776961,2.854813
1226,13.887628,3.515427,2.827418
1227,13.798949,3.158772,2.784704
1228,13.836684,2.777532,2.805191
1229,13.803744,2.438653,2.819219
1230,13.779933,2.091287,2.834502
1231,13.764837,1.737369,2.847078
1232,13.756237,1.379494,2.860141
1233,13.760714,1.010765,2.878368
1234,13.796711,0.617526,2.889754
1235,13.930667,0.237596,2.869064
1236,14.096211,0.018224,2.823846
1237,13.840138,-0.127321,2.873811
1238,13.748019,-0.502988,2.889133
1239,13.699247,-0.863549,2.900112
1240,13.664186,-1.248039,2.898846
1241,13.631155,-1.651632,2.879213
1242,13.582438,-2.057425,2.837311
1243,13.499305,-2.450453,2.776555
1244,13.371285,-2.819954,2.704587
1245,13.204932,-3.160085,2.617594
1246,13.017342,-3.472657,2.508466
1247,12.821744,-3.766180,2.380991
1248,12.625661,-4.049440,2.243953
1249,12.432569,-4.329155,2.103606
1250,12.242206,-4.610191,1.964720
1251,12.053394,-4.893401,1.829123
1252,11.864869,-5.177365,1.695478
1253,11.674863,-5.461349,1.563072
1254,11.482566,-5.745508,1.433299
1255,11.287971,-6.030750,1.308482
1256,11.090907,-6.317304,1.188762
1257,10.891571,-6.603572,1.071993
1258,10.689398,-6.888224,0.958181
1259,10.482602,-7.171341,0.848886
1260,10.270755,-7.452681,0.743208
1261,10.055042,-7.731490,0.640278
1262,9.835743,-8.007943,0.541444
1263,9.612440,-8.282550,0.446853
1264,9.385331,-8.554539,0.354740
1265,9.154792,-8.823548,0.265853
1266,8.921308,-9.090891,0.183498
1267,8.684986,-9.356398,0.108425
1268,8.444100,-9.617699,0.039419
1269,8.197207,-9.873842,-0.022907
1270,7.945709,-10.125928,-0.076992
1271,7.690987,-10.375431,-0.122547
1272,7.433349,-10.624226,-0.162480
1273,7.174384,-10.875000,-0.201252
1274,6.915534,-11.128792,-0.239632
1275,6.656526,-11.384760,-0.274272
1276,6.396449,-11.643647,-0.301840
1277,6.134582,-11.906775,-0.321078
1278,5.869125,-12.173632,-0.333191
1279,5.594629,-12.441400,-0.343302
1280,5.302447,-12.701301,-0.349852
1281,4.982935,-12.937487,-0.342463
1282,4.641920,-13.160131,-0.352298
1283,4.314531,-13.425396,-0.497536
1284,3.885404,-13.465063,-0.400958
1285,3.493319,-13.538700,-0.442043
1286,3.114389,-13.593724,-0.501765
1287,2.739577,-13.620112,-0.546198
1288,2.370370,-13.631946,-0.585929
1289,2.005990,-13.636692,-0.625394
1290,1.644839,-13.636784,-0.661112
1291,1.287585,-13.633422,-0.692151
1292,0.926403,-13.618093,-0.714027
1293,0.566894,-13.624467,-0.745001
1294,0.217507,-13.641997,-0.776666
1295,-0.132043,-13.651864,-0.795533
1296,-0.482182,-13.670603,-0.807729
1297,-0.830835,-13.677483,-0.802322
1298,-1.179562,-13.673076,-0.784573
1299,-1.527536,-13.663722,-0.758967
1300,-1.875138,-13.652660,-0.726733
1301,-2.222993,-13.640917,-0.689364
1302,-2.570683,-13.627389,-0.647051
1303,-2.918292,-13.610638,-0.599597
1304,-3.266265,-13.589931,-0.547139
1305,-3.614551,-13.563721,-0.489566
1306,-3.963168,-13.530771,-0.426942
1307,-4.311923,-13.493113,-0.358383
1308,-4.660458,-13.452652,-0.282765
1309,-5.009284,-13.407282,-0.202561
1310,-5.358795,-13.355035,-0.121180
1311,-5.708749,-13.296346,-0.039012
1312,-6.059567,-13.231648,0.045139
1313,-6.411624,-13.161120,0.132427
1314,-6.764261,-13.084762,0.222687
1315,-7.117380,-13.002133,0.314388
1316,-7.471573,-12.914716,0.406822
1317,-7.826412,-12.826243,0.502070
1318,-8.182333,-12.736615,0.599435
1319,-8.539973,-12.641526,0.693745
1320,-8.897937,-12.542209,0.784957
1321,-9.256516,-12.444615,0.877074
1322,-9.618291,-12.351214,0.969275
1323,-9.983657,-12.257845,1.056279
1324,-10.351086,-12.157326,1.131321
1325,-10.719303,-12.048617,1.184789
1326,-11.084505,-11.929121,1.200399
1327,-11.434095,-11.779899,1.154921
1328,-11.741744,-11.576030,1.035429
1329,-11.989327,-11.296154,0.866927
1330,-12.167525,-10.983781,0.711178
1331,-12.295332,-10.642474,0.718227
1332,-12.363304,-10.121368,0.645199
1333,-12.351272,-9.657395,0.574165
1334,-12.417247,-9.154580,0.437527
1335,-12.619209,-9.009203,0.557716
1336,-12.654120,-8.791153,0.379616
1337,-12.800881,-8.489797,0.128649
1338,-12.590679,-8.381746,-0.248625
1339,-12.458494,-8.345000,-0.677341
1340,-12.418152,-8.346893,-1.136585
1341,-12.443553,-8.342892,-1.590650
1342,-12.485715,-8.292939,-2.010238
1343,-12.535586,-8.189430,-2.398540
1344,-12.587101,-8.064506,-2.768324
1345,-12.581117,-7.966488,-3.107595
1346,-12.447074,-7.920301,-3.419734
1347,8.644815,7.482681,-3.300576
1348,8.662244,7.530771,-2.715436
1349,8.715959,7.573891,-2.121143
1350,8.809995,7.596563,-1.528067
1351,8.911855,7.563372,-1.025176
1352,9.130895,7.575110,-0.437888
1353,9.444650,7.614441,0.177847
1354,9.764489,7.607250,0.686900
1355,10.131344,7.582298,1.149807
1356,10.589422,7.565685,1.586728
1357,11.168198,7.646014,1.967042
1358,11.843741,7.505440,2.330332
1359,-12.452413,-8.715230,0.053142
1360,-12.363855,-8.685594,-0.387953
1361,-12.381784,-8.687200,-0.851854
1362,-12.466857,-8.661937,-1.296422
1363,-12.559077,-8.580142,-1.698037
1364,-12.613028,-8.451379,-2.058797
1365,-12.613962,-8.317725,-2.397222
1366,-12.553718,-8.216333,-2.707183
1367,-12.394341,-8.153218,-2.953975
1368,-12.126930,-8.103357,-3.224552
1369,-11.844564,-8.138394,-3.021081
1370,-11.785111,-8.067764,-2.858569
1371,-11.928009,-8.013629,-2.697559
1372,-12.146090,-7.939371,-2.563929
1373,-12.292329,-7.701188,-2.348600
1374,-12.268942,-7.388130,-2.665520
1375,-12.195311,-7.084252,-2.959997
1376,-12.009604,-6.769447,-2.964558
1377,-11.866056,-6.605507,-3.256600
1378,-11.677289,-6.408864,-3.577198
1379,-11.481197,-6.214381,-3.901072
1380,-11.294996,-6.015091,-4.223347
1381,-11.171812,-5.803600,-4.602338
1382,-10.959279,-5.515440,-4.566071
1383,-10.782565,-5.226338,-4.570755
1384,-10.594454,-4.918610,-4.522929
1385,-10.388466,-4.595858,-4.463328
1386,-10.154640,-4.246190,-4.398086
1387,-10.006498,-4.041958,-4.779872
1388,-9.862234,-3.864639,-5.158030
1389,-9.734001,-3.725753,-5.582375
1390,-9.620216,-3.607548,-6.016543
1391,-9.505360,-3.491497,-6.398570
1392,-9.376332,-3.378944,-6.728713
1393,-9.246881,-3.284779,-7.082855
1394,-9.138889,-3.219484,-7.527401
1395,-9.072327,-3.203899,-8.084167
1396,-8.938702,-3.139250,-8.590907
1397,-8.903473,-3.143603,-8.865142
1398,-8.758952,-3.003487,-8.844877
1399,-8.543676,-2.817123,-9.023750
1400,-8.252982,-2.551765,-9.280252
1401,-8.080492,-2.402493,-9.754179
1402,-7.789403,-2.075897,-9.908507
1403,-7.619788,-1.869113,-10.410055
1404,-7.339654,-1.543087,-10.355215
1405,-7.235879,-1.395350,-10.916380
1406,-7.094199,-1.262715,-10.380617
1407,-7.366689,-1.500172,-11.482673
1408,-7.157906,-1.229738,-11.852875
1409,-7.157763,-1.171158,-12.337022
1410,-7.106964,-1.069001,-12.781741
1411,-7.070027,-0.989474,-13.190133
1412,-7.124484,-0.900933,-13.597570
1413,-6.843834,-0.543971,-13.759205
1414,-6.781649,-0.355624,-14.075160
1415,-6.690047,-0.225594,-14.210701
1416,-6.511302,-0.133641,-14.088390
1417,-6.093825,0.158264,-14.008975
1418,-5.589989,0.442348,-14.038025
1419,-5.199075,0.585442,-14.082738
1420,-4.803242,0.756033,-13.978270
1421,-4.347793,0.976482,-13.686828
1422,-3.804429,1.051456,-13.592256
1423,-3.334440,0.955866,-13.682873
1424,-2.829064,0.728541,-13.830717
1425,-2.382834,0.441101,-14.072608
1426,-1.955436,0.151521,-14.392468
1427,-1.491256,-0.050443,-14.594596
1428,-1.109901,-0.277731,-14.811693
1429,-0.808152,-0.578831,-14.911997
1430,-0.597846,-0.871092,-14.953575
1431,-0.410067,-1.173544,-14.932980
1432,-0.246958,-1.473896,-14.879857
1433,-0.114643,-1.746512,-14.783674
1434,0.030518,-2.059545,-14.684751
1435,0.091300,-2.290050,-14.384596
1436,0.164283,-2.548507,-14.214238
1437,0.273791,-2.850363,-14.085826
1438,0.205231,-2.810155,-13.670753
1439,0.119785,-2.724237,-13.274351
1440,-0.008961,-2.563368,-12.799310
1441,0.180759,-2.876958,-12.850230
1442,0.421825,-3.225779,-13.007149
1443,0.562012,-3.342467,-12.701978
1444,0.714670,-3.468676,-12.473357
1445,0.824878,-3.645581,-12.219573
1446,0.864872,-3.855774,-11.885818
1447,1.040303,-4.220314,-11.950295
1448,1.202978,-4.660661,-12.049266
1449,1.210543,-4.858237,-11.674768
1450,1.205996,-4.981190,-11.327547
1451,1.189325,-5.008583,-10.929162
1452,1.353803,-4.995317,-11.284728
1453,1.459614,-4.870784,-11.664866
1454,1.308837,-4.459285,-11.512685
1455,1.054792,-4.054021,-11.357134
1456,0.800181,-3.651836,-11.161692
1457,0.536579,-3.233368,-10.900031
1458,0.254348,-2.813371,-10.607764
1459,-0.029832,-2.400555,-10.349292
1460,0.005201,-2.424019,-10.782201
1461,0.035589,-2.452872,-11.208329
1462,0.052051,-2.473429,-11.587413
1463,0.035336,-2.454816,-11.888810
1464,-0.008339,-2.381809,-12.150719
1465,-0.059561,-2.259548,-12.395121
1466,-0.102438,-2.119125,-12.626871
1467,0.084229,-2.434458,-12.975592
1468,0.249586,-2.715706,-13.293832
1469,0.339457,-2.862954,-13.507092
1470,0.392148,-2.911953,-13.729670
1471,0.459249,-2.950272,-14.096330
1472,0.528116,-2.977248,-14.485147
1473,0.595192,-2.991065,-14.828984
1474,0.661688,-2.951803,-15.085970
1475,0.769858,-2.885456,-15.313999
1476,0.720526,-2.674406,-15.417110
1477,0.524121,-2.460065,-15.302619
1478,0.389311,-2.339839,-15.025651
1479,0.166212,-1.956556,-14.786992
1480,-0.067943,-1.532196,-14.421574
1481,-0.292773,-1.138230,-14.112155
1482,-0.516229,-0.749986,-13.787450
1483,-0.695129,-0.341187,-13.430673
1484,-0.775652,0.098117,-13.059325
1485,-0.728958,0.553372,-12.706337
1486,-0.550443,1.007004,-12.407579
1487,-0.250929,1.442346,-12.149756
1488,0.132040,1.824193,-11.867670
1489,0.599880,2.197917,-11.884945
1490,1.101914,2.524149,-11.893541
1491,1.561857,2.801672,-12.009583
1492,1.812359,2.962361,-12.160107
1493,1.983195,3.041070,-11.986599
1494,2.357912,3.231795,-11.941889
1495,2.658377,3.364142,-11.891787
1496,2.927516,3.472306,-11.815641
1497,3.222631,3.624862,-11.772231
1498,3.382582,3.774369,-11.635295
1499,3.427232,3.855242,-11.401020
1500,3.498938,3.938882,-11.167711
1501,3.528363,3.971564,-10.852228
1502,3.533758,3.968500,-10.428420
1503,3.560922,3.964019,-9.951279
1504,3.640084,3.982679,-9.478597
1505,3.785641,4.028839,-9.039350
1506,3.921565,4.059533,-8.650202
1507,4.327074,4.181011,-8.397061
1508,4.855940,4.318864,-8.410439
1509,5.231728,4.388054,-8.398611
1510,5.632933,4.464954,-8.438600
1511,5.925476,4.525249,-8.327678
1512,6.060174,4.554909,-8.036696
1513,6.249419,4.600895,-7.720091
1514,6.446288,4.639496,-7.372910
1515,6.657411,4.664965,-7.026366
1516,6.925682,4.681850,-6.770624
1517,7.248543,4.673757,-6.583866
1518,7.597201,4.591861,-6.330003
1519,7.955261,4.503457,-6.338595
1520,8.170687,4.344171,-6.066909
1521,8.465306,4.222535,-6.104428
1522,8.627773,4.170550,-6.160058
1523,8.677993,4.117911,-5.987183
1524,8.816893,4.009208,-5.717393
1525,9.004578,3.863823,-5.426632
1526,9.197523,3.690970,-5.135272
1527,9.355336,3.482111,-4.750100
1528,9.462525,3.258001,-4.225677
1529,10.160261,2.289948,-3.909936
1530,10.031396,2.605459,-3.914437
1531,10.130591,1.977175,-3.943807
1532,10.202138,1.927555,-4.351000
1533,10.053714,1.774253,-3.876535
1534,-12.324828,-9.065103,-0.086083
1535,-12.408615,-9.040370,-0.573262
1536,-12.524574,-8.977600,-1.005741
1537,-12.604950,-8.863508,-1.379068
1538,-12.611175,-8.712032,-1.718159
1539,-12.548740,-8.564161,-2.040383
1540,-12.448623,-8.450195,-2.343974
1541,-12.343921,-8.352254,-2.589860
1542,-12.091826,-8.280538,-2.659626
1543,-11.880346,-8.178589,-2.518829
1544,-11.896293,-8.094783,-2.409338
1545,-12.079174,-8.085032,-2.181490
1546,-12.269415,-7.962159,-2.063122
1547,-12.324664,-7.665693,-1.631595
1548,-12.251866,-7.282821,-2.001017
1549,-12.133435,-6.975374,-2.263730
1550,-11.968279,-6.715918,-2.469827
1551,-11.768768,-6.501500,-2.723062
1552,-11.561647,-6.311940,-3.055694
1553,-11.353212,-6.119330,-3.380970
1554,-11.153035,-5.916374,-3.657337
1555,-10.976322,-5.674298,-3.976246
1556,-10.809887,-5.399147,-4.108870
1557,-10.652967,-5.128293,-4.003359
1558,-10.479279,-4.800728,-3.954235
1559,-10.285698,-4.454409,-3.930416
1560,-10.050558,-4.070335,-3.903288
1561,-9.881337,-3.853869,-4.328320
1562,-9.717755,-3.662863,-4.722471
1563,-9.569096,-3.504885,-5.140379
1564,-9.426699,-3.365125,-5.567740
1565,-9.285239,-3.232112,-5.972650
1566,-9.144776,-3.114360,-6.358457
1567,-9.009286,-3.024490,-6.777262
1568,-8.890859,-2.965531,-7.285452
1569,-8.812991,-2.947863,-7.869137
1570,-8.794183,-2.979338,-8.362603
1571,-8.601619,-2.800327,-8.395320
1572,-7.821817,-2.096268,-9.245148
1573,-7.976204,-2.241609,-8.718759
1574,-7.530182,-1.786441,-9.347911
1575,-7.382045,-1.617423,-9.713343
1576,-7.161232,-1.364429,-9.886823
1577,-6.933391,-1.120601,-9.846458
1578,-6.843970,-0.978961,-10.390770
1579,-6.680588,-0.857263,-9.877701
1580,-6.978143,-1.098061,-10.863221
1581,-7.045387,-1.145196,-11.343100
1582,-6.895181,-0.952357,-11.682126
1583,-6.868361,-0.895915,-12.059324
1584,-6.806399,-0.795337,-12.464924
1585,-6.732737,-0.695910,-12.834132
1586,-6.719355,-0.619449,-13.247309
1587,-6.328116,-0.187373,-13.350686
1588,-6.446286,-0.170823,-13.828157
1589,-6.083608,0.105222,-13.661172
1590,-5.723161,0.372742,-13.702853
1591,-5.278510,0.605768,-13.732110
1592,-4.874374,0.816196,-13.516983
1593,-4.435371,0.973968,-13.332744
1594,-3.938745,1.039618,-13.307059
1595,-3.336440,1.002613,-13.361047
1596,-2.770577,0.843622,-13.543223
1597,-2.280570,0.598076,-13.765972
1598,-1.862034,0.333809,-13.994219
1599,-1.473280,0.092565,-14.183612
1600,-1.119539,-0.173398,-14.346843
1601,-0.839259,-0.502522,-14.542357
1602,-0.694728,-0.728565,-14.712504
1603,-0.599924,-0.846740,-14.495314
1604,-0.426020,-1.156594,-14.382753
1605,-0.310167,-1.405386,-14.250821
1606,-0.214566,-1.657347,-14.113629
1607,-0.136659,-1.914118,-13.949968
1608,-0.054924,-2.184991,-13.796186
1609,0.058637,-2.490698,-13.695024
1610,0.082000,-2.599267,-13.503760
1611,-0.022781,-2.450631,-13.241642
1612,-0.176776,-2.251984,-12.778694
1613,-0.327914,-2.064857,-12.249644
1614,-0.144572,-2.392664,-12.253984
1615,0.049780,-2.692681,-12.280492
1616,0.274136,-3.005524,-12.363153
1617,0.446205,-3.202899,-12.259066
1618,0.531605,-3.302344,-12.020366
1619,0.621017,-3.479500,-11.756790
1620,0.668406,-3.665411,-11.396511
1621,0.856620,-4.013855,-11.419699
1622,1.027067,-4.406822,-11.501268
1623,1.052753,-4.593693,-11.150109
1624,1.069728,-4.778639,-10.863694
1625,1.053833,-4.896953,-10.536029
1626,1.037856,-4.930140,-10.145520
1627,1.182753,-4.940477,-10.468802
1628,1.315112,-4.833854,-10.754373
1629,1.367024,-4.666800,-11.098506
1630,1.180474,-4.285111,-10.945489
1631,0.937683,-3.941882,-10.839725
1632,0.710270,-3.583875,-10.687332
1633,0.471227,-3.199640,-10.457802
1634,0.211771,-2.802412,-10.184437
1635,-0.060269,-2.392225,-9.921319
1636,-0.337684,-1.974737,-9.726309
1637,-0.300304,-1.996867,-10.177058
1638,-0.248001,-2.052681,-10.634859
1639,-0.188087,-2.132026,-11.085333
1640,-0.125820,-2.223913,-11.478852
1641,-0.073863,-2.302472,-11.703371
1642,-0.137238,-2.197459,-11.810102
1643,-0.242131,-1.984497,-11.955170
1644,-0.292534,-1.816228,-12.220816
1645,-0.337139,-1.643557,-12.455377
1646,-0.119096,-1.992453,-12.913260
1647,0.083866,-2.347026,-13.296133
1648,0.255587,-2.664526,-13.579132
1649,0.311639,-2.671120,-13.948921
1650,0.394271,-2.705242,-14.373253
1651,0.496936,-2.768440,-14.763216
1652,0.573763,-2.836724,-14.974844
1653,0.563328,-2.666000,-15.089510
1654,0.134181,-2.321342,-13.709559
1655,0.227021,-2.359130,-14.181199
1656,0.343592,-2.412107,-14.679235
1657,10.338729,2.098555,-4.365183
1658,10.359074,2.517030,-4.514321
1659,10.137289,2.935020,-4.541386
1660,9.721220,3.340163,-4.523036
1661,9.322508,3.653716,-4.623737
1662,9.308898,3.746513,-4.971546
1663,9.278235,3.832519,-5.256418
1664,9.199458,3.931528,-5.483904
1665,9.046105,4.045598,-5.670171
1666,8.811645,4.174106,-5.880975
1667,8.520796,4.326852,-6.156209
1668,8.582641,4.387023,-6.617169
1669,8.233710,4.515387,-6.433358
1670,8.034299,4.743183,-6.632560
1671,7.991311,4.980083,-6.802500
1672,7.967940,5.295759,-6.658504
1673,7.894022,5.553581,-6.259820
1674,7.821116,5.766436,-5.900411
1675,7.733344,5.973894,-5.528348
1676,7.654865,6.177109,-5.154844
1677,7.621880,6.368271,-4.789832
1678,7.668032,6.540028,-4.404615
1679,7.818050,6.713464,-3.909356
1680,7.905796,6.736798,-3.318236
1681,8.213158,7.037194,-3.006897
1682,8.017789,6.769702,-2.794961
1683,8.432172,7.270017,-3.179082
1684,11.714364,6.973236,2.375706
1685,12.182176,6.690557,2.591160
1686,12.489894,6.373195,2.708892
1687,12.722877,6.062574,2.774584
1688,12.918112,5.760970,2.818353
1689,13.074205,5.462475,2.849177
1690,13.237724,5.215330,2.879001
1691,13.144541,4.870081,2.824220
1692,13.288715,4.516001,2.811282
1693,13.458302,4.219375,2.816909
1694,13.674017,4.013175,2.846899
1695,13.479021,3.829068,2.769847
1696,13.349838,3.545204,2.685601
1697,13.131206,3.247493,2.584811
1698,13.248993,2.887319,2.663599
1699,13.215694,2.548180,2.704233
1700,13.180951,2.204980,2.741059
1701,13.164970,1.852130,2.775791
1702,13.159542,1.493180,2.809615
1703,13.168909,1.123925,2.849187
1704,13.203054,0.727116,2.891213
1705,13.309045,0.252385,2.918879
1706,13.214865,-0.202524,2.938504
1707,13.175353,-0.581777,2.957555
1708,13.158960,-0.965906,2.969068
1709,13.147913,-1.370400,2.968396
1710,13.120043,-1.777315,2.957527
1711,13.051106,-2.164301,2.935064
1712,12.929824,-2.519590,2.895321
1713,12.766445,-2.843516,2.832299
1714,12.582112,-3.142361,2.741144
1715,12.392300,-3.425605,2.624645
1716,12.203070,-3.701279,2.491932
1717,12.015605,-3.974512,2.352230
1718,11.829420,-4.249387,2.212753
1719,11.643918,-4.527689,2.077606
1720,11.458554,-4.807708,1.945440
1721,11.272253,-5.087889,1.814231
1722,11.083840,-5.368748,1.686232
1723,10.892761,-5.650453,1.563134
1724,10.699091,-5.932135,1.443490
1725,10.502853,-6.212776,1.325515
1726,10.303568,-6.492120,1.210263
1727,10.100556,-6.771095,1.101603
1728,9.893461,-7.049639,0.999963
1729,9.682319,-7.325907,0.901711
1730,9.467456,-7.599149,0.805984
1731,9.249214,-7.870321,0.714175
1732,9.027539,-8.139883,0.626749
1733,8.802536,-8.407331,0.543905
1734,8.575315,-8.673144,0.467773
1735,8.345943,-8.937178,0.400464
1736,8.111052,-9.196306,0.340679
1737,7.868204,-9.449150,0.287273
1738,7.620524,-9.698218,0.242146
1739,7.371215,-9.944696,0.206912
1740,7.119961,-10.189643,0.178596
1741,6.869037,-10.439238,0.151033
1742,6.621830,-10.698606,0.122385
1743,6.377563,-10.965485,0.097003
1744,6.133930,-11.236600,0.079287
1745,5.889069,-11.511989,0.070956
1746,5.640264,-11.791058,0.069758
1747,5.382766,-12.070345,0.068934
1748,5.107581,-12.340101,0.066924
1749,4.802950,-12.584924,0.073808
1750,4.473908,-12.816618,0.066434
1751,4.157947,-13.098943,-0.060051
1752,3.723374,-13.108910,0.018658
1753,3.333544,-13.161168,-0.023435
1754,2.959731,-13.196750,-0.082255
1755,2.591303,-13.203848,-0.132250
1756,2.229829,-13.196928,-0.182679
1757,1.874555,-13.184756,-0.234454
1758,1.524954,-13.170525,-0.282694
1759,1.171508,-13.138779,-0.316993
1760,0.749415,-13.035187,-0.316517
1761,0.407117,-13.202673,-0.461842
1762,0.097022,-13.127507,-0.446240
1763,-0.248094,-13.126923,-0.470047
1764,-0.587704,-13.146555,-0.490622
1765,-0.928024,-13.148755,-0.490779
1766,-1.269142,-13.137202,-0.476897
1767,-1.610133,-13.120482,-0.454282
1768,-1.951409,-13.104615,-0.425089
1769,-2.292734,-13.092008,-0.389775
1770,-2.633653,-13.080987,-0.347727
1771,-2.974691,-13.067866,-0.299990
1772,-3.316691,-13.049847,-0.248394
1773,-3.659598,-13.025728,-0.191624
1774,-4.002804,-12.996390,-0.126767
1775,-4.346168,-12.964012,-0.052995
1776,-4.690245,-12.928400,0.027404
1777,-5.035333,-12.887331,0.111218
1778,-5.381069,-12.840145,0.197083
1779,-5.727817,-12.787435,0.284851
1780,-6.076616,-12.729097,0.375074
1781,-6.427730,-12.663960,0.467186
1782,-6.780648,-12.591382,0.559802
1783,-7.134947,-12.512440,0.653200
1784,-7.490283,-12.430400,0.749339
1785,-7.846893,-12.347876,0.848341
1786,-8.206181,-12.262961,0.945805
1787,-8.568076,-12.173301,1.038098
1788,-8.931058,-12.081527,1.127795
1789,-9.294874,-11.992277,1.219226
1790,-9.660994,-11.906307,1.309709
1791,-10.030362,-11.817747,1.390318
1792,-10.401909,-11.718830,1.452750
1793,-10.773103,-11.606603,1.488002
1794,-11.138638,-11.478619,1.475008
1795,-11.482636,-11.327886,1.373624
1796,-11.782777,-11.145140,1.153757
1797,-12.038932,-10.925829,0.851755
1798,-12.257513,-10.664537,0.585521
1799,-12.400376,-10.319874,0.384877
1800,-12.418037,-9.854916,0.169126
1801,-12.317971,-9.428290,0.173319
1802,8.482341,7.298630,-2.607410
1803,8.560615,7.321961,-2.028278
1804,8.676486,7.334121,-1.455517
1805,8.836800,7.330829,-0.891190
1806,9.001186,7.273025,-0.407107
1807,9.298525,7.267076,0.158018
1808,9.692216,7.302287,0.733098
1809,10.063435,7.283598,1.184147
1810,10.471279,7.236379,1.583959
1811,11.063168,7.201719,2.005880
1812,0.118614,-1.986196,-14.370355
1813,-0.089547,-1.583149,-14.082905
1814,-0.296606,-1.208003,-13.810928
1815,-0.499218,-0.842318,-13.507848
1816,-0.671335,-0.449838,-13.152536
1817,-0.770169,-0.018481,-12.770689
1818,-0.757820,0.438570,-12.403852
1819,-0.607459,0.907833,-12.077436
1820,-0.306859,1.387362,-11.722447
1821,0.111100,1.809844,-11.492344
1822,0.514407,2.120853,-11.477648
1823,1.003990,2.448845,-11.454574
1824,1.560722,2.782269,-11.519121
1825,2.032777,3.045221,-11.433932
1826,2.357897,3.210623,-11.364314
1827,2.630617,3.337841,-11.284518
1828,2.883504,3.463027,-11.209155
1829,3.142189,3.630213,-11.172331
1830,3.298022,3.761893,-11.012605
1831,3.300836,3.784446,-10.243710
1832,3.344998,3.810261,-10.686596
1833,3.294141,3.777848,-9.749019
1834,3.342791,3.802027,-9.250585
1835,3.456184,3.854958,-8.759917
1836,3.626175,3.919341,-8.219074
1837,4.045204,4.044031,-7.740362
1838,4.582272,4.195420,-7.844285
1839,4.978375,4.286742,-7.847301
1840,5.303197,4.354818,-7.825030
1841,5.643956,4.434018,-7.863254
1842,5.791340,4.460065,-7.504981
1843,5.983984,4.504277,-7.203016
1844,6.185514,4.549480,-6.868324
1845,6.410838,4.587663,-6.526182
1846,6.683761,4.605904,-6.246769
1847,6.998543,4.573469,-5.997495
1848,7.315935,4.452584,-5.565923
1849,7.799467,4.433885,-5.845748
1850,8.086909,4.253227,-5.473264
1851,8.417035,4.167025,-5.718437
1852,10.155928,1.793075,-3.831983
1853,10.190550,2.764543,-4.195160
1854,10.297714,2.457121,-4.036873
1855,9.352961,3.551565,-4.290610
1856,9.544311,3.364134,-4.109863
1857,8.915663,3.880718,-4.699131
1858,8.969318,3.750135,-4.228910
1859,8.917333,3.952215,-5.035570
1860,8.939019,4.000651,-5.292075
1861,8.968037,4.026663,-5.449088
1862,8.773574,4.108854,-5.492307
1863,8.408713,4.258641,-5.592784
1864,8.103145,4.460641,-5.883628
1865,7.879712,4.688571,-6.072348
1866,7.799551,4.972944,-6.235732
1867,7.782882,5.238528,-6.153045
1868,7.726150,5.393718,-5.869228
1869,7.663612,5.583720,-5.554044
1870,7.594925,5.785852,-5.229097
1871,7.538893,5.973979,-4.910505
1872,7.516110,6.118364,-4.552663
1873,7.550886,6.241551,-4.115436
1874,7.631986,6.339250,-3.614892
1875,7.739878,6.405459,-3.091759
1876,7.873732,6.465789,-2.581776
1877,8.140257,6.793119,-2.283828
1878,8.023630,6.509835,-2.086907
1879,8.300383,7.054241,-2.468578
1880,9.865701,3.079163,-4.075604
1881,10.070621,2.774665,-3.803909
1882,9.785493,2.924373,-4.043737
1883,9.529250,3.040149,-3.625902
1884,10.301252,2.119634,-3.766503
1885,10.238659,1.821974,-3.417219
1886,0.029598,-1.958973,-13.912749
1887,-0.165616,-1.567349,-13.676105
1888,-0.341153,-1.231356,-13.480108
1889,-0.511905,-0.915393,-13.221446
1890,-0.675494,-0.560357,-12.870527
1891,-0.794853,-0.146767,-12.476669
1892,-0.819604,0.316005,-12.090027
1893,-0.712222,0.793015,-11.733346
1894,-0.543369,1.166357,-11.413404
1895,-0.155623,1.619191,-11.161613
1896,0.363284,2.035525,-11.043240
1897,0.827456,2.351645,-10.966330
1898,1.291719,2.641661,-10.923253
1899,1.715285,2.886848,-10.884065
1900,2.061078,3.076062,-10.800155
1901,2.368819,3.231449,-10.718832
1902,2.655329,3.370783,-10.667222
1903,2.909637,3.512761,-10.631990
1904,3.140162,3.663247,-10.631625
1905,3.046943,3.620824,-10.137677
1906,3.004230,3.613670,-9.620242
1907,3.017328,3.642265,-9.091707
1908,3.083005,3.695352,-8.558711
1909,3.105468,3.725997,-8.090615
1910,3.380185,3.836386,-7.596840
1911,4.774685,4.208584,-7.305641
1912,4.376118,4.113100,-7.267598
1913,5.089351,4.280527,-7.306712
1914,5.398564,4.353825,-7.348319
1915,5.543544,4.375801,-7.021103
1916,5.714854,4.410820,-6.722961
1917,5.911802,4.453471,-6.388105
1918,6.136062,4.488433,-6.045664
1919,6.400831,4.493408,-5.741952
1920,6.686307,4.444454,-5.435185
1921,6.909096,4.337559,-5.025994
1922,8.069959,4.143079,-4.890310
1923,7.734215,4.307289,-5.197372
1924,8.489429,4.041624,-5.225373
1925,3.889247,3.987596,-7.155998
1926,3.386736,3.857408,-7.003411
1927,7.385654,4.282179,-4.877523
1928,7.046805,4.194167,-4.529730
1929,8.770432,3.860888,-4.928522
1930,8.961577,3.706735,-4.667499
1931,9.097071,3.538460,-4.300878
1932,9.203670,3.351523,-3.834472
1933,9.287843,3.152429,-3.310418
1934,9.365950,2.939254,-2.765486
1935,9.599459,2.804875,-3.025053
1936,9.822164,2.700337,-3.396617
1937,10.050764,2.382196,-3.329796
1938,10.113555,2.042344,-3.370906
1939,10.016943,1.788696,-3.530994
1940,9.987586,1.665834,-3.568421
1941,10.045379,1.607452,-3.358150
1942,10.141152,1.573286,-3.074641
1943,10.287605,1.863917,-3.089279
1944,10.219051,1.563564,-2.785804
1945,10.283392,2.157815,-3.326714
1946,10.205824,2.469250,-3.554171
1947,8.407868,7.066849,-1.922052
1948,8.547509,7.070161,-1.370249
1949,8.724820,7.043534,-0.817513
1950,8.960545,7.010262,-0.264332
1951,9.194462,6.943104,0.193833
1952,9.552315,6.943297,0.695396
1953,9.980135,6.988465,1.179617
1954,10.341421,6.942245,1.535001
1955,10.732637,6.837530,1.855285
1956,11.191994,6.677182,2.158041
1957,11.631187,6.445620,2.395469
1958,11.969011,6.171155,2.545466
1959,12.226550,5.888987,2.632832
1960,12.450191,5.627692,2.692310
1961,12.656787,5.418789,2.744152
1962,12.725512,5.121943,2.743159
1963,12.588172,4.823754,2.661188
1964,12.651439,4.489895,2.599106
1965,13.005069,4.040939,2.635986
1966,12.781518,3.659371,2.453726
1967,12.575111,3.356472,2.310728
1968,12.684590,2.995879,2.433984
1969,12.645414,2.653788,2.502025
1970,12.599102,2.309489,2.553347
1971,12.579135,1.957273,2.601053
1972,12.571501,1.600442,2.648194
1973,12.574267,1.238407,2.698407
1974,12.591852,0.864248,2.750534
1975,12.625433,0.468196,2.795943
1976,12.639235,0.066476,2.828244
1977,12.634722,-0.316643,2.852490
1978,12.645802,-0.697345,2.869863
1979,12.660204,-1.092877,2.879714
1980,12.653403,-1.485823,2.896219
1981,12.598507,-1.850561,2.927023
1982,12.483693,-2.178296,2.948064
1983,12.323146,-2.477210,2.929517
1984,12.142606,-2.758133,2.866166
1985,11.958647,-3.030353,2.769319
1986,11.776387,-3.300403,2.650583
1987,11.595866,-3.570999,2.519932
1988,11.415593,-3.844160,2.386867
1989,11.234548,-4.120861,2.257128
1990,11.052724,-4.399528,2.130629
1991,10.869740,-4.678082,2.004710
1992,10.684591,-4.956783,1.880788
1993,10.496644,-5.236537,1.762158
1994,10.305949,-5.516307,1.647588
1995,10.112611,-5.794402,1.533972
1996,9.916305,-6.070672,1.421524
1997,9.716566,-6.346610,1.314511
1998,9.513155,-6.623094,1.216464
1999,9.305797,-6.898259,1.124241
2000,9.094639,-7.170268,1.034012
2001,8.880487,-7.439757,0.946997
2002,8.663556,-7.707830,0.865365
2003,8.443640,-7.974541,0.790071
2004,8.221599,-8.239668,0.721496
2005,7.997352,-8.502138,0.661336
2006,7.765225,-8.757514,0.610583
2007,7.520361,-9.004502,0.567422
2008,7.268925,-9.248973,0.531391
2009,7.020516,-9.494380,0.504380
2010,6.776311,-9.739621,0.484912
2011,6.534401,-9.988000,0.466687
2012,6.297364,-10.248849,0.445916
2013,6.066297,-10.524548,0.426598
2014,5.837618,-10.807105,0.414757
2015,5.608061,-11.091524,0.412893
2016,5.374751,-11.377634,0.418912
2017,5.132998,-11.662650,0.424962
2018,4.875036,-11.936037,0.425129
2019,4.589588,-12.182499,0.426860
2020,4.279150,-12.417926,0.419231
2021,3.979814,-12.713504,0.315420
2022,3.547076,-12.693410,0.375986
2023,3.166146,-12.725214,0.338736
2024,2.802967,-12.743301,0.286037
2025,2.445568,-12.733476,0.231157
2026,2.096523,-12.712680,0.169798
2027,1.758013,-12.694108,0.106070
2028,1.429250,-12.674241,0.047804
2029,1.083711,-12.598872,0.018345
2030,0.653248,-12.325159,0.072041
2031,0.338007,-12.695345,-0.171963
2032,-0.042919,-12.587984,-0.163046
2033,-0.371654,-12.595171,-0.196121
2034,-0.693626,-12.602284,-0.215770
2035,-1.023279,-12.597770,-0.218568
2036,-1.356508,-12.577321,-0.206988
2037,-1.691872,-12.551979,-0.187299
2038,-2.027816,-12.531448,-0.161244
2039,-2.362930,-12.518688,-0.127637
2040,-2.697962,-12.509576,-0.086541
2041,-3.034700,-12.499340,-0.040462
2042,-3.372919,-12.485426,0.010099
2043,-3.711233,-12.465811,0.068245
2044,-4.049454,-12.441004,0.136340
2045,-4.388573,-12.412774,0.213203
2046,-4.729209,-12.380558,0.295723
2047,-5.070802,-12.343145,0.382273
2048,-5.413151,-12.300404,0.472290
2049,-5.757534,-12.252445,0.565170
2050,-6.105198,-12.198091,0.659332
2051,-6.456041,-12.135762,0.752811
2052,-6.809328,-12.065133,0.845161
2053,-7.164407,-11.988406,0.938714
2054,-7.521051,-11.909115,1.035318
2055,-7.880472,-11.828759,1.132509
2056,-8.243868,-11.746270,1.225619
2057,-8.610346,-11.660845,1.312649
2058,-8.977931,-11.573709,1.396421
2059,-9.345733,-11.487388,1.479879
2060,-9.715067,-11.403031,1.559261
2061,-10.087194,-11.316791,1.624984
2062,-10.461105,-11.221458,1.667661
2063,-10.834653,-11.111328,1.677632
2064,-11.201511,-10.984461,1.632361
2065,-11.542362,-10.842259,1.487712
2066,-11.837475,-10.687212,1.213360
2067,-12.090761,-10.521152,0.843844
2068,-12.303702,-10.330049,0.457407
2069,-12.448158,-10.077259,0.106242
2070,-12.518291,-9.806074,-0.187176
2071,-12.450153,-9.456860,-0.284754
2072,-8.574588,-2.713851,-7.743796
2073,-8.268109,-2.431417,-7.561430
2074,-8.321510,-2.543209,-8.438081
2075,-8.045482,-2.283051,-8.154020
2076,-8.043368,-2.266499,-7.797130
2077,-7.590896,-1.875111,-8.630172
2078,-7.732338,-2.016023,-8.275415
2079,-7.392732,-1.666242,-8.855993
2080,-7.187232,-1.445132,-9.050810
2081,-7.031396,-1.261461,-9.366242
2082,-6.746750,-0.984334,-9.305815
2083,-6.498277,-0.750960,-9.363741
2084,-6.403529,-0.592340,-9.897394
2085,-6.231921,-0.524410,-9.398415
2086,-6.561847,-0.679734,-10.402992
2087,-6.728656,-0.812692,-10.859454
2088,-6.867726,-0.949893,-11.121704
2089,-6.695074,-0.752533,-11.318851
2090,-6.584923,-0.622087,-11.748950
2091,-6.508084,-0.527719,-12.132690
2092,-6.481892,-0.477660,-12.478965
2093,-6.316557,-0.294848,-12.747082
2094,-5.971247,0.049739,-12.855620
2095,-5.628240,0.345649,-12.949318
2096,-5.888582,0.210403,-13.330402
2097,-5.530686,0.477610,-13.380209
2098,-5.245104,0.651608,-13.407987
2099,-5.037774,0.739596,-13.213879
2100,-4.650264,0.871138,-13.094593
2101,-4.105084,0.965787,-12.946121
2102,-3.416482,0.950213,-12.866068
2103,-2.814859,0.885003,-13.127006
2104,-2.256562,0.711018,-13.351989
2105,-1.793930,0.465497,-13.620419
2106,-1.420144,0.217482,-13.798961
2107,-1.108689,-0.052543,-13.930441
2108,-0.829269,-0.425914,-14.041884
2109,-0.629311,-0.778602,-13.900611
2110,-0.504355,-1.065075,-13.752069
2111,-0.404363,-1.341809,-13.637775
2112,-0.317228,-1.597526,-13.586210
2113,-0.294582,-1.787189,-13.306582
2114,-0.149911,-2.163878,-13.263883
2115,-5.300824,0.581693,-13.075407
2116,-4.895760,0.724670,-12.822805
2117,-4.352005,0.847401,-12.613416
2118,-3.756814,0.877567,-12.435889
2119,-2.470917,0.784192,-12.905574
2120,-2.151503,0.690433,-13.033418
2121,-1.822148,0.529642,-13.239812
2122,-1.438467,0.281272,-13.443920
2123,-1.166648,0.060068,-13.623632
2124,-0.977505,-0.169051,-13.667802
2125,-0.882323,-0.366440,-13.510367
2126,-0.775982,-0.645970,-13.215874
2127,-0.568842,-1.100755,-13.181878
2128,-0.521876,-1.418480,-12.782775
2129,-0.339098,-1.895592,-12.771806
2130,-0.506710,-1.681771,-12.244011
2131,-0.652164,-1.518724,-11.689195
2132,-0.468524,-1.893542,-11.681077
2133,-0.268606,-2.239219,-11.656185
2134,-0.048822,-2.564094,-11.698055
2135,0.159244,-2.840457,-11.819345
2136,0.321783,-3.046113,-11.952577
2137,0.355665,-3.101948,-11.649306
2138,0.423638,-3.262347,-11.322596
2139,0.477395,-3.438912,-10.911581
2140,0.678966,-3.789349,-10.895618
2141,0.870737,-4.141944,-10.943623
2142,0.930362,-4.319192,-10.607816
2143,0.978485,-4.525420,-10.359940
2144,0.973250,-4.694142,-10.083714
2145,0.939390,-4.808777,-9.756432
2146,0.921359,-4.885715,-9.402060
2147,1.048662,-4.911846,-9.717538
2148,1.192971,-4.827742,-9.984825
2149,1.272613,-4.650660,-10.203640
2150,1.258949,-4.455153,-10.504359
2151,1.037775,-4.113618,-10.372328
2152,0.814861,-3.812142,-10.320831
2153,0.612064,-3.492172,-10.211525
2154,0.400829,-3.152735,-10.026881
2155,0.175200,-2.798201,-9.760042
2156,-0.081254,-2.400971,-9.480099
2157,-0.364192,-1.976727,-9.277301
2158,-0.646844,-1.566572,-9.156483
2159,-0.609285,-1.571548,-9.625931
2160,-0.548973,-1.611678,-10.108238
2161,-0.466662,-1.702209,-10.601851
2162,-0.371059,-1.834453,-11.077109
2163,-0.265862,-1.994368,-11.507570
2164,-0.389056,-1.763001,-11.525639
2165,-0.451561,-1.596734,-11.728602
2166,-0.529952,-1.382175,-11.920344
2167,-0.328180,-1.535023,-12.816207
2168,-0.621001,-1.088272,-12.164587
2169,-0.095203,-1.880340,-13.361398
2170,8.601266,4.113142,-5.217297
2171,8.194276,4.249092,-5.092464
2172,7.937884,4.444395,-5.328969
2173,7.740402,4.676428,-5.520630
2174,7.652232,4.918884,-5.694142
2175,7.670026,5.119769,-5.847809
2176,7.604212,5.219959,-5.528876
2177,7.547419,5.393014,-5.182143
2178,7.503124,5.605788,-4.886091
2179,2.777019,3.467772,-10.101751
2180,2.694474,3.462963,-9.555081
2181,2.673458,3.496334,-8.993122
2182,2.704105,3.551904,-8.437992
2183,2.783981,3.619989,-7.900128
2184,2.871705,3.687613,-7.368680
2185,2.935103,3.744098,-6.869550
2186,3.383254,3.872953,-6.524473
2187,2.975617,3.778427,-6.432263
2188,3.821964,3.969890,-6.635776
2189,4.241287,4.062521,-6.718995
2190,4.629922,4.148222,-6.761814
2191,4.968264,4.227759,-6.830252
2192,5.224859,4.294595,-6.960121
2193,5.279267,4.290413,-6.636258
2194,5.424590,4.306739,-6.279652
2195,5.629188,4.336431,-5.931552
2196,5.854493,4.356706,-5.595271
2197,6.104540,4.348002,-5.273431
2198,6.355586,4.297341,-4.951609
2199,6.564221,4.202886,-4.589033
2200,6.720810,4.069739,-4.168930
2201,6.850767,3.904576,-3.703382
2202,7.156757,4.032106,-4.015017
2203,7.456356,4.119680,-4.287703
2204,7.784808,4.145541,-4.516346
2205,8.088090,4.045795,-4.422321
2206,8.380777,3.966437,-4.608201
2207,8.648772,3.835257,-4.536392
2208,8.752746,3.727646,-4.275487
2209,8.861340,3.588520,-3.926995
2210,8.957038,3.424710,-3.502144
2211,9.036622,3.240070,-3.022419
2212,9.112711,3.033480,-2.510391
2213,9.195463,2.803521,-1.982383
2214,9.451167,2.708797,-2.212795
2215,9.675567,2.560248,-2.438118
2216,9.906045,2.370187,-2.719798
2217,10.086414,2.050063,-2.817676
2218,10.076562,1.827622,-2.907245
2219,10.008883,1.727119,-3.131115
2220,9.954523,1.627920,-3.295442
2221,9.980336,1.527612,-3.041525
2222,10.032581,1.395256,-2.759142
2223,10.111367,1.292600,-2.474075
2224,10.274793,1.588248,-2.488339
2225,10.208818,1.248663,-2.180307
2226,10.281008,1.939141,-2.820027
2227,10.279616,2.125785,-3.062967
2228,10.144321,2.365350,-2.984933
2229,9.942619,2.748059,-3.298889
2230,9.750424,3.015591,-3.524784
2231,9.516755,3.262318,-3.680727
2232,9.255597,3.505026,-3.875583
2233,8.923839,3.645123,-3.635244
2234,8.543039,3.899571,-3.957125
2235,8.583886,3.803882,-3.434618
2236,8.507276,4.000682,-4.442007
2237,8.517864,4.073840,-4.860875
2238,-12.553969,-9.298131,-0.732975
2239,-12.573111,-9.139929,-1.069243
2240,-12.509319,-8.950097,-1.377489
2241,-12.396009,-8.744977,-1.684557
2242,-12.276014,-8.574973,-2.018481
2243,-12.209243,-8.463314,-2.332735
2244,-12.030643,-8.367155,-2.119578
2245,-11.922716,-8.162674,-2.112106
2246,-11.951437,-8.106479,-2.132092
2247,-12.023217,-8.133630,-1.913002
2248,-12.212093,-8.069132,-1.641827
2249,-12.327107,-7.889742,-1.084085
2250,-12.033384,-6.868777,-1.655700
2251,-12.175573,-7.156959,-1.371896
2252,-11.861069,-6.626423,-1.901582
2253,-11.657772,-6.420190,-2.189670
2254,-11.435844,-6.233651,-2.523935
2255,-11.216233,-6.045428,-2.844090
2256,-11.010948,-5.838262,-3.083848
2257,-10.837493,-5.603796,-3.279010
2258,-10.718226,-5.355199,-3.553309
2259,-10.533275,-5.022129,-3.389529
2260,-10.372092,-4.676982,-3.364806
2261,-10.186924,-4.308729,-3.379877
2262,-9.935562,-3.896686,-3.395074
2263,-9.757558,-3.647280,-3.865217
2264,-9.571836,-3.442112,-4.275159
2265,-9.404526,-3.270742,-4.688826
2266,-9.245236,-3.116510,-5.112459
2267,-9.084081,-2.971261,-5.538989
2268,-8.928239,-2.850676,-5.983457
2269,-8.786077,-2.769942,-6.475992
2270,-8.656013,-2.719632,-7.060542
2271,7.486723,5.971908,-3.888469
2272,7.460531,5.847863,-4.301421
2273,7.539573,5.983296,-3.443608
2274,7.646537,6.057466,-2.913187
2275,7.790504,6.141586,-2.400041
2276,7.960129,6.208569,-1.904143
2277,8.185050,6.540359,-1.607869
2278,8.151293,6.261439,-1.419502
2279,8.276060,6.807091,-1.774707
2280,8.432200,6.797726,-1.265443
2281,8.625995,6.701328,-0.703191
2282,8.927096,6.743579,-0.139110
2283,9.175481,6.661630,0.298798
2284,9.482713,6.593191,0.735385
2285,9.851739,6.660293,1.126064
2286,10.186467,6.703266,1.442182
2287,10.472849,6.552614,1.695243
2288,10.837136,6.378038,1.962916
2289,11.210884,6.172611,2.189634
2290,11.536501,5.937865,2.354695
2291,11.809662,5.680392,2.464677
2292,12.088362,5.446097,2.559116
2293,12.367183,5.304557,2.649416
2294,12.240284,5.078024,2.575418
2295,12.152545,4.780096,2.474284
2296,12.059268,4.499716,2.340546
2297,12.267543,4.124950,2.303018
2298,12.201702,3.745044,2.117695
2299,12.037359,3.446097,1.958861
2300,12.144764,3.091484,2.126300
2301,12.096070,2.746101,2.221931
2302,12.043646,2.397725,2.280748
2303,12.022177,2.044453,2.327764
2304,12.013225,1.690856,2.375012
2305,12.009483,1.338778,2.426241
2306,12.016360,0.985131,2.476104
2307,12.040267,0.624856,2.519743
2308,12.078075,0.259871,2.557157
2309,12.119172,-0.104811,2.590398
2310,12.159019,-0.475826,2.617585
2311,12.195735,-0.854888,2.639735
2312,12.210537,-1.215833,2.683862
2313,12.171505,-1.531553,2.772746
2314,12.062382,-1.808386,2.870814
2315,11.901367,-2.070485,2.914944
2316,11.721787,-2.331149,2.887569
2317,11.541598,-2.593980,2.814439
2318,11.363850,-2.861273,2.717883
2319,11.187589,-3.132746,2.607010
2320,11.011554,-3.407056,2.488745
2321,10.834256,-3.683840,2.369525
2322,10.655090,-3.961914,2.251654
2323,10.474008,-4.239657,2.134340
2324,10.290513,-4.517011,2.018115
2325,10.104183,-4.795036,1.905944
2326,9.915247,-5.073525,1.798313
2327,9.723891,-5.351113,1.692933
2328,9.529846,-5.627150,1.588881
2329,9.332658,-5.902262,1.487907
2330,9.131871,-6.177442,1.393824
2331,8.927164,-6.452061,1.307598
2332,8.718797,-6.724072,1.224869
2333,8.507866,-6.993172,1.144523
2334,8.294977,-7.260548,1.069895
2335,8.079641,-7.526771,1.003053
2336,7.862005,-7.791461,0.943163
2337,7.641552,-8.052393,0.889853
2338,7.410662,-8.302253,0.846280
2339,7.160509,-8.538522,0.812974
2340,6.909361,-8.777518,0.783803
2341,6.659738,-9.011375,0.764837
2342,6.401682,-9.245824,0.757398
2343,6.162178,-9.513114,0.743691
2344,5.941373,-9.791856,0.723751
2345,5.723378,-10.071487,0.706856
2346,5.508150,-10.361354,0.696425
2347,5.291460,-10.651455,0.695494
2348,5.070723,-10.939136,0.702487
2349,4.842010,-11.223228,0.710065
2350,4.599654,-11.493996,0.707268
2351,4.337293,-11.736081,0.696020
2352,4.056096,-11.968411,0.682731
2353,3.783016,-12.271992,0.609961
2354,3.362840,-12.221860,0.650955
2355,3.000935,-12.232129,0.629064
2356,2.653507,-12.231619,0.589803
2357,2.308275,-12.208534,0.532044
2358,1.975187,-12.185260,0.462185
2359,1.660958,-12.174426,0.389117
2360,1.355620,-12.150872,0.322277
2361,1.042256,-12.066598,0.281523
2362,0.756805,-11.865716,0.296413
2363,0.118170,-12.062442,0.098633
2364,-0.209436,-12.132462,0.028229
2365,-0.484098,-12.054702,0.030476
2366,-0.793310,-12.045583,0.014276
2367,-1.111522,-12.029674,0.011621
2368,-1.438116,-11.997154,0.021909
2369,-1.768279,-11.963484,0.039578
2370,-2.098299,-11.937487,0.064686
2371,-2.428592,-11.919987,0.097573
2372,-2.761679,-11.909997,0.136474
2373,-3.097795,-11.905461,0.180375
2374,-3.434071,-11.900891,0.231047
2375,-3.768735,-11.888595,0.291071
2376,-4.103127,-11.868009,0.360868
2377,-4.438996,-11.842945,0.438187
2378,-4.776505,-11.813821,0.521382
2379,-5.114977,-11.779860,0.610013
2380,-5.454850,-11.740720,0.703614
2381,-5.797952,-11.695635,0.799398
2382,-6.145246,-11.643049,0.893711
2383,-6.496181,-11.581544,0.985363
2384,-6.850039,-11.511333,1.075803
2385,-7.206486,-11.435019,1.166842
2386,-7.565927,-11.355829,1.258273
2387,-7.929542,-11.276059,1.348153
2388,-8.297452,-11.196089,1.433255
2389,-8.668202,-11.114569,1.511255
2390,-9.039793,-11.030511,1.583700
2391,-9.411516,-10.945818,1.653122
2392,-9.784302,-10.863672,1.716499
2393,-10.157886,-10.783259,1.763631
2394,-10.530820,-10.696817,1.782977
2395,-10.903494,-10.594547,1.765624
2396,-11.270374,-10.475035,1.690598
2397,-11.607578,-10.346153,1.517690
2398,-11.886844,-10.218538,1.218208
2399,-12.100838,-10.100497,0.806151
2400,-12.266833,-9.978786,0.339283
2401,-12.410036,-9.821026,-0.107356
2402,-12.512773,-9.594384,-0.457440
2403,0.376167,-11.797318,0.247114
2404,0.536014,-11.533562,0.365831
2405,-12.452912,-9.369844,-0.729535
2406,-12.349746,-9.122469,-0.991446
2407,-12.245666,-8.843012,-1.260295
2408,-12.139985,-8.535261,-1.576074
2409,-6.348844,-0.436496,-10.919563
2410,-6.276483,-0.344295,-11.436758
2411,-6.208050,-0.270893,-11.823793
2412,-6.191783,-0.234270,-12.212844
2413,-5.937178,-0.009724,-12.330689
2414,-5.650414,0.229267,-12.446255
2415,-5.244439,0.500365,-12.555054
2416,-2.847580,0.827196,-12.627466
2417,-3.195883,0.809851,-12.269302
2418,2.472818,3.318029,-10.098492
2419,2.344505,3.310156,-9.487693
2420,2.311124,3.353234,-8.883245
2421,2.346155,3.421873,-8.321966
2422,2.397864,3.494052,-7.781263
2423,2.455260,3.566490,-7.250679
2424,2.531368,3.632293,-6.748901
2425,2.621270,3.669601,-6.298272
2426,2.767029,3.670812,-5.852480
2427,2.946702,3.768438,-6.149492
2428,3.266483,3.830192,-6.046091
2429,3.734422,3.935319,-6.149281
2430,4.117030,4.011123,-6.207853
2431,4.473286,4.077858,-6.212944
2432,4.918674,4.177891,-6.275434
2433,5.122078,4.179097,-5.803999
2434,5.345761,4.192432,-5.474389
2435,5.575201,4.196766,-5.153813
2436,5.814937,4.179707,-4.833121
2437,6.047282,4.132472,-4.519008
2438,6.246384,4.047579,-4.188174
2439,6.405805,3.918911,-3.812878
2440,6.543426,3.751058,-3.387419
2441,6.680621,3.556264,-2.932418
2442,6.977047,3.715561,-3.214437
2443,7.270565,3.852519,-3.498959
2444,7.539185,3.955864,-3.766490
2445,7.790996,4.002034,-3.961755
2446,8.046152,3.975670,-4.057887
2447,8.291594,3.911202,-4.155421
2448,8.624367,3.632384,-3.627455
2449,8.545828,3.761230,-3.983744
2450,8.695426,3.474318,-3.213714
2451,8.760660,3.288187,-2.751901
2452,8.830306,3.073868,-2.260236
2453,8.908645,2.831640,-1.754481
2454,9.288061,2.551184,-1.452115
2455,8.997288,2.561412,-1.244764
2456,9.547031,2.464724,-1.661531
2457,9.763243,2.311582,-1.878688
2458,9.912203,2.180527,-2.131085
2459,10.051900,1.831031,-2.188624
2460,10.044927,1.640052,-2.524631
2461,-12.046709,-8.248705,-1.723670
2462,-12.188933,-8.242208,-1.243828
2463,-12.289264,-8.146242,-0.713218
2464,-11.690952,-6.604023,-1.360848
2465,-11.880520,-6.830858,-1.121313
2466,-11.490679,-6.389218,-1.672375
2467,-11.275257,-6.200239,-2.002447
2468,-11.057082,-6.010118,-2.305356
2469,-10.853770,-5.795507,-2.523374
2470,-10.685945,-5.545356,-2.678651
2471,-10.582250,-5.275563,-2.928856
2472,-10.402341,-4.939354,-2.780350
2473,-10.249286,-4.590916,-2.776710
2474,-10.043018,-4.204191,-2.810979
2475,-9.738583,-3.762691,-2.882466
2476,-9.595557,-3.462321,-3.404486
2477,-9.405645,-3.230270,-3.832634
2478,-9.222939,-3.044113,-4.245918
2479,-9.052191,-2.879399,-4.675975
2480,-8.883556,-2.728044,-5.130046
2481,-8.718963,-2.605463,-5.623272
2482,-8.567838,-2.528681,-6.166193
2483,-8.428339,-2.485007,-6.772281
2484,8.105110,4.219837,-4.627565
2485,7.803882,4.453446,-4.791871
2486,7.621661,4.727478,-4.975269
2487,7.559459,5.000488,-5.228391
2488,7.490901,5.165693,-4.698190
2489,7.453917,5.523357,-4.426279
2490,7.478209,5.799865,-4.671989
2491,7.453949,5.648922,-3.897376
2492,7.509637,5.619805,-3.336545
2493,7.619085,5.707305,-2.768977
2494,7.765329,5.811446,-2.253109
2495,7.941530,5.895335,-1.759005
2496,8.148833,5.955591,-1.263526
2497,8.402468,5.988845,-0.735290
2498,8.388367,6.319643,-0.915863
2499,8.342605,6.544904,-1.186383
2500,0.150973,-2.852949,-11.347940
2501,0.202741,-2.992808,-10.879190
2502,0.278136,-3.184902,-10.393436
2503,0.502334,-3.560187,-10.375164
2504,0.713618,-3.900072,-10.403046
2505,0.800479,-4.069747,-10.070526
2506,0.885158,-4.274711,-9.836994
2507,0.912870,-4.464682,-9.592781
2508,0.891598,-4.626019,-9.324063
2509,0.856733,-4.763106,-9.050109
2510,0.840460,-4.874689,-8.762041
2511,0.927700,-4.934996,-9.028019
2512,1.072072,-4.872054,-9.268843
2513,1.186687,-4.703977,-9.493196
2514,1.236471,-4.542670,-9.732569
2515,1.127285,-4.268441,-9.834495
2516,0.884407,-3.944204,-9.802870
2517,0.691462,-3.669183,-9.801437
2518,0.509782,-3.379347,-9.740541
2519,0.340320,-3.100922,-9.639042
2520,0.162577,-2.831750,-9.236022
2521,-0.116926,-2.387050,-8.998037
2522,-0.393720,-1.973289,-8.816663
2523,-0.670067,-1.567636,-8.692273
2524,-0.921196,-1.173469,-8.628888
2525,-0.904289,-1.174805,-9.109448
2526,-0.859347,-1.195957,-9.609550
2527,-0.774275,-1.257940,-10.127721
2528,-0.655712,-1.376711,-10.656122
2529,-0.518999,-1.555758,-11.159269
2530,8.745012,6.386121,-0.276462
2531,9.157299,6.260980,0.392996
2532,9.647318,6.291641,0.976469
2533,10.119261,6.299598,1.427411
2534,10.520183,6.101201,1.753880
2535,10.873343,5.907260,1.984351
2536,11.187776,5.716984,2.159179
2537,11.430296,5.501027,2.266560
2538,11.760104,5.190867,2.377346
2539,11.625864,4.803488,2.208290
2540,11.595592,4.467086,2.052072
2541,11.630005,4.134694,1.887844
2542,11.647724,3.817148,1.725732
2543,11.500592,3.510398,1.571025
2544,11.618870,3.157775,1.756937
2545,11.572883,2.811817,1.872356
2546,11.523549,2.462941,1.933822
2547,11.506282,2.110457,1.970082
2548,11.506920,1.764984,2.012444
2549,11.499794,1.425965,2.044927
2550,11.503628,1.082706,2.073626
2551,11.542444,0.738760,2.111104
2552,11.602791,0.393473,2.144644
2553,11.673963,0.040990,2.188620
2554,11.729924,-0.319429,2.236181
2555,11.770114,-0.677531,2.284543
2556,11.800169,-0.989962,2.366410
2557,11.787499,-1.224654,2.516448
2558,11.692453,-1.419905,2.690601
2559,11.526468,-1.631560,2.801133
2560,11.338788,-1.871078,2.815424
2561,11.155785,-2.127602,2.768049
2562,10.978064,-2.394657,2.695820
2563,10.802034,-2.668948,2.610417
2564,10.626181,-2.946212,2.514921
2565,10.449566,-3.223864,2.413214
2566,10.270948,-3.501261,2.308694
2567,10.089765,-3.778068,2.203448
2568,9.905927,-4.054531,2.098981
2569,9.719294,-4.331498,1.997290
2570,9.530300,-4.609089,1.899021
2571,9.339440,-4.886571,1.803008
2572,9.146352,-5.163666,1.709423
2573,8.950481,-5.440187,1.618646
2574,8.751249,-5.715899,1.532096
2575,8.548101,-5.990615,1.452708
2576,8.341460,-6.263270,1.379222
2577,8.132744,-6.532848,1.307781
2578,7.922917,-6.799978,1.240387
2579,7.711429,-7.065589,1.181534
2580,7.497650,-7.329479,1.130584
2581,7.280551,-7.588947,1.084297
2582,7.052219,-7.833933,1.045606
2583,6.800437,-8.057205,1.018924
2584,6.550449,-8.294545,0.993944
2585,6.398024,-8.566652,0.950539
2586,6.101800,-8.681723,0.977733
2587,5.731415,-8.897848,0.999691
2588,5.547482,-9.320487,0.950497
2589,5.349177,-9.619264,0.928963
2590,5.147100,-9.909411,0.916812
2591,4.941603,-10.200502,0.913270
2592,4.730284,-10.485904,0.916087
2593,4.510360,-10.763315,0.916696
2594,4.279098,-11.025784,0.901057
2595,4.039554,-11.259643,0.864054
2596,3.799619,-11.482451,0.831398
2597,3.570701,-11.783045,0.795160
2598,3.183603,-11.703163,0.821051
2599,2.857076,-11.686744,0.831291
2600,2.528115,-11.665479,0.814148
2601,2.191415,-11.634430,0.758123
2602,1.870650,-11.618008,0.683178
2603,1.563140,-11.608340,0.602827
2604,1.227122,-11.549045,0.527825
2605,0.949033,-11.621362,0.428820
2606,0.776898,-11.605763,0.391906
2607,0.694935,-11.319452,0.463428
2608,0.508253,-10.889847,0.539913
2609,0.349029,-11.150070,0.445431
2610,0.192364,-11.361754,0.360927
2611,0.037065,-11.550850,0.278578
2612,-0.246375,-11.582975,0.226049
2613,-0.575866,-11.502431,0.216006
2614,-0.874141,-11.483215,0.201407
2615,-1.185134,-11.449217,0.200084
2616,-1.506541,-11.404078,0.208761
2617,-1.830800,-11.360328,0.225480
2618,-2.163897,-11.309430,0.252622
2619,-2.502348,-11.291534,0.283558
2620,-2.834824,-11.293678,0.318654
2621,-3.167875,-11.291013,0.362368
2622,-3.501612,-11.300800,0.413188
2623,-3.832498,-11.296352,0.474180
2624,-4.163811,-11.279562,0.544096
2625,-4.496809,-11.257940,0.620699
2626,-4.831521,-11.232163,0.703638
2627,-5.167649,-11.201439,0.793687
2628,-5.506157,-11.164965,0.888972
2629,-5.848889,-11.121349,0.983800
2630,-6.196331,-11.069047,1.074959
2631,-6.547912,-11.007252,1.163834
2632,-6.903402,-10.936618,1.251163
2633,-7.262917,-10.859195,1.335096
2634,-7.626806,-10.778704,1.415490
2635,-7.995259,-10.699356,1.493207
2636,-8.367548,-10.622429,1.565366
2637,-8.742272,-10.545406,1.629245
2638,-9.118149,-10.465437,1.686591
2639,-9.494669,-10.384127,1.739971
2640,-9.870149,-10.307167,1.785466
2641,-10.241355,-10.235286,1.810946
2642,-10.608625,-10.159381,1.805728
2643,-10.977482,-10.067769,1.761525
2644,-11.342775,-9.959995,1.656846
2645,-11.673331,-9.849123,1.458063
2646,-11.927709,-9.749732,1.137742
2647,-12.091729,-9.671770,0.698199
2648,-12.200771,-9.607650,0.188389
2649,-12.311636,-9.521786,-0.310105
2650,2.067926,3.130969,-10.049778
2651,1.931672,3.143531,-9.271434
2652,1.931463,3.211671,-8.668622
2653,1.993245,3.296320,-8.165542
2654,2.037830,3.372913,-7.659849
2655,2.081512,3.444121,-7.131890
2656,2.155051,3.499113,-6.610885
2657,2.257022,3.519365,-6.119729
2658,2.317729,3.488186,-5.704177
2659,3.195893,3.731159,-5.512850
2660,2.640810,3.513953,-5.305942
2661,3.628042,3.864563,-5.685260
2662,3.972390,3.938608,-5.746598
2663,4.264823,3.995432,-5.790346
2664,4.575899,4.029869,-5.640599
2665,4.828494,4.023958,-5.289677
2666,5.064770,4.022217,-5.005744
2667,5.303740,4.013886,-4.705503
2668,5.543479,3.992266,-4.404523
2669,5.772523,3.947147,-4.108926
2670,5.975225,3.878506,-3.825435
2671,6.120312,3.763725,-3.507473
2672,6.239101,3.591239,-3.107770
2673,6.379442,3.388444,-2.671076
2674,6.529480,3.162398,-2.228670
2675,6.826738,3.339468,-2.469782
2676,7.110000,3.507260,-2.727355
2677,7.394701,3.650366,-2.985700
2678,7.662171,3.772826,-3.280331
2679,7.835518,3.868427,-3.562756
2680,8.072248,3.849360,-3.649258
2681,8.319765,3.809243,-3.789067
2682,8.364669,3.671271,-3.400351
2683,8.413977,3.501236,-2.970993
2684,8.469920,3.304618,-2.518020
2685,8.527862,3.079107,-2.045049
2686,8.600450,2.818571,-1.555614
2687,8.686348,2.525078,-1.060227
2688,9.100458,2.262225,-0.737944
2689,8.792492,2.198887,-0.567061
2690,9.392549,2.275729,-0.930496
2691,9.652103,2.209914,-1.125402
2692,9.864651,2.060096,-1.339107
2693,10.006543,1.889992,-1.657423
2694,10.098001,1.406282,-1.576523
2695,10.018819,1.345744,-2.111349
2696,9.985311,1.317748,-2.458570
2697,9.986104,1.542021,-2.779270
2698,10.024376,1.123192,-2.156159
2699,10.114477,0.987580,-1.866055
2700,10.246517,0.898652,-1.561396
2701,10.303023,1.243809,-1.853853
2702,10.300707,1.626865,-2.152284
2703,10.229199,2.017081,-2.499595
2704,10.020514,1.047414,-1.765248
2705,10.069301,0.791273,-1.496278
2706,10.189275,0.611085,-1.227682
2707,10.359765,0.532794,-0.921496
2708,10.373593,0.861406,-1.213195
2709,10.362044,1.252528,-1.471841
2710,10.288134,1.653851,-1.752672
2711,10.157900,2.038973,-2.073739
2712,9.999292,2.392569,-2.427650
2713,9.819400,2.706439,-2.748218
2714,-7.831627,-2.100426,-7.878040
2715,-7.938911,-2.175051,-7.486094
2716,-0.292553,-1.450377,-13.237910
2717,-0.412220,-1.194115,-13.176590
2718,-0.542265,-0.957239,-12.957223
2719,-0.682895,-0.690237,-12.607128
2720,-0.827877,-0.290372,-12.190544
2721,-0.889417,0.170419,-11.775021
2722,-0.825785,0.664991,-11.387635
2723,-0.611273,1.150392,-11.049888
2724,-0.331037,1.569724,-10.667342
2725,0.148714,1.961600,-10.586221
2726,0.611372,2.271873,-10.466824
2727,1.036131,2.538389,-10.367496
2728,1.434663,2.776005,-10.295828
2729,1.774142,2.957937,-10.318444
2730,9.625856,2.970263,-2.977251
2731,9.431111,3.189068,-3.143712
2732,9.210383,3.404006,-3.332310
2733,8.930785,3.537899,-3.060862
2734,8.641263,3.721996,-2.875482
2735,8.247139,4.032224,-3.279745
2736,8.357169,3.970882,-2.719374
2737,8.238828,4.042710,-3.731901
2738,8.124637,4.153291,-4.148121
2739,-0.698189,-1.228191,-12.201554
2740,-0.850608,-1.092043,-11.654163
2741,-0.790890,-1.363277,-11.125698
2742,-0.994895,-0.972411,-11.109545
2743,-0.607923,-1.716940,-11.106483
2744,-0.415550,-2.047948,-11.040638
2745,-0.128765,-2.484992,-11.004018
2746,-8.069470,-2.242312,-7.001945
2747,-7.721688,-2.018645,-7.077623
2748,-7.828918,-2.081797,-6.602792
2749,-7.618502,-1.937785,-7.478794
2750,-7.503000,-1.829863,-7.826610
2751,-7.357859,-1.682752,-8.115862
2752,-7.174347,-1.494257,-8.326830
2753,-6.976820,-1.289709,-8.511287
2754,-6.826121,-1.113705,-8.811993
2755,-6.539206,-0.866092,-8.781268
2756,-6.297437,-0.665386,-8.860114
2757,-6.053162,-0.474792,-8.928855
2758,-5.908377,-0.292867,-9.365658
2759,-5.765021,-0.289052,-8.903546
2760,-6.070010,-0.324432,-9.860750
2761,-6.215554,-0.369576,-10.365099
2762,-0.644276,-1.295735,-11.297775
2763,-0.764928,-1.022991,-11.444716
2764,-0.898472,-0.608096,-11.479995
2765,-0.849274,-0.464678,-11.907616
2766,-0.704711,-0.780775,-12.339696
2767,-0.499712,-1.144603,-12.777680
2768,-12.222420,-9.207121,-0.526348
2769,-12.178877,-8.873201,-0.756146
2770,-12.173457,-8.532111,-0.993441
2771,-12.018687,-7.065538,-0.861774
2772,-12.271208,-7.451046,-0.979918
2773,-12.093099,-7.342103,-0.490635
2774,7.476315,5.219657,-3.923742
2775,7.553421,5.242225,-3.186840
2776,7.661037,5.364936,-2.607938
2777,7.790908,5.496432,-2.123154
2778,7.955075,5.586652,-1.661985
2779,8.163889,5.631283,-1.168597
2780,8.441300,5.597834,-0.606398
2781,8.776851,5.589929,-0.043458
2782,8.716040,5.969898,-0.174356
2783,-0.052220,-2.662797,-10.267596
2784,0.112727,-2.969064,-9.892738
2785,0.312396,-3.307614,-9.788844
2786,0.552368,-3.679832,-9.874879
2787,0.654687,-3.853128,-9.548122
2788,0.758858,-4.049329,-9.313724
2789,0.827464,-4.244179,-9.084667
2790,0.856092,-4.435046,-8.853174
2791,0.859939,-4.625663,-8.659910
2792,0.847696,-4.783539,-8.507867
2793,0.858693,-4.852843,-8.228369
2794,0.857267,-4.952852,-8.416967
2795,0.950874,-4.959116,-8.621079
2796,1.080972,-4.822868,-8.802964
2797,1.139834,-4.585437,-8.983888
2798,1.131155,-4.361244,-9.277164
2799,0.936219,-4.053129,-9.213643
2800,0.743772,-3.786674,-9.245284
2801,0.572507,-3.519640,-9.271530
2802,0.392237,-3.225245,-9.252627
2803,-4.666301,0.686549,-12.287023
2804,-4.050364,0.782698,-12.086930
2805,-3.501441,0.764809,-11.891323
2806,-2.692887,0.682860,-12.142598
2807,-2.956383,0.660463,-11.737325
2808,-2.458829,0.704270,-12.496898
2809,-2.257438,0.696545,-12.751851
2810,-1.924872,0.549220,-12.868875
2811,-1.514856,0.293381,-13.077493
2812,-1.162000,0.006771,-13.357898
2813,-1.159320,-0.098203,-13.036737
2814,9.054195,5.834724,0.335099
2815,9.456680,5.915754,0.807725
2816,9.877976,5.901974,1.239759
2817,10.255386,5.813066,1.558024
2818,10.602637,5.647853,1.790649
2819,11.223537,5.190113,2.092252
2820,11.104523,4.845542,1.900150
2821,11.051058,4.525953,1.690849
2822,11.075503,4.203221,1.490140
2823,11.087464,3.871600,1.330235
2824,10.941314,3.529990,1.183752
2825,11.098724,3.190599,1.355282
2826,11.081925,2.845955,1.467348
2827,11.050859,2.503382,1.525718
2828,11.051122,2.164065,1.557616
2829,11.062840,1.830176,1.586092
2830,11.120848,1.539860,1.670544
2831,11.031033,1.208705,1.510067
2832,11.147284,0.818855,1.578953
2833,11.238259,0.476058,1.614808
2834,11.322198,0.128348,1.678204
2835,11.372509,-0.222259,1.762974
2836,11.398329,-0.549405,1.859026
2837,11.431175,-0.799552,1.992054
2838,11.450050,-0.935164,2.200121
2839,11.386122,-1.023818,2.437933
2840,11.217984,-1.171053,2.603625
2841,11.009476,-1.389883,2.659875
2842,10.811677,-1.644279,2.643057
2843,10.627274,-1.913775,2.597468
2844,10.447360,-2.191185,2.538611
2845,10.267765,-2.470807,2.468470
2846,10.087331,-2.748774,2.389725
2847,9.905362,-3.024704,2.304748
2848,9.721065,-3.299683,2.216066
2849,9.534396,-3.574721,2.126522
2850,9.345421,-3.850789,2.038514
2851,9.154399,-4.128218,1.953095
2852,8.962056,-4.406396,1.868985
2853,8.768309,-4.684984,1.786369
2854,8.572260,-4.963630,1.706742
2855,8.373176,-5.241177,1.630510
2856,8.170420,-5.516891,1.560067
2857,7.964363,-5.790379,1.496522
2858,7.756656,-6.060923,1.436216
2859,7.548537,-6.328422,1.377487
2860,7.339682,-6.593494,1.324985
2861,7.129116,-6.856172,1.281450
2862,6.915497,-7.114016,1.242283
2863,6.692202,-7.356549,1.206946
2864,6.447302,-7.570739,1.182005
2865,6.198506,-7.799173,1.160979
2866,6.037481,-8.155253,1.109498
2867,5.644576,-8.203091,1.154112
2868,5.164207,-8.269642,1.195183
2869,5.109454,-8.841176,1.118116
2870,4.947848,-9.177534,1.086839
2871,4.759099,-9.462502,1.070775
2872,4.562461,-9.747715,1.061875
2873,4.358298,-10.028316,1.056143
2874,4.145922,-10.296673,1.040929
2875,3.924931,-10.547043,0.997660
2876,3.711938,-10.777064,0.927082
2877,3.513817,-10.979511,0.855919
2878,3.343376,-11.257886,0.845859
2879,3.019665,-11.146406,0.866395
2880,2.749715,-11.103905,0.926194
2881,2.441395,-11.057152,0.941970
2882,2.098426,-11.007194,0.896866
2883,1.759893,-11.003005,0.821868
2884,1.397960,-10.935647,0.742541
2885,1.083723,-10.969414,0.654667
2886,0.897368,-11.166744,0.556397
2887,9.095888,5.497013,0.383058
2888,9.350997,5.598768,0.691961
2889,9.726898,5.536310,1.067258
2890,10.070812,5.545929,1.386287
2891,10.381677,5.381196,1.586117
2892,10.773264,5.237443,1.821449
2893,10.946183,5.497160,1.991973
2894,10.613554,4.947235,1.590888
2895,10.521367,4.618969,1.325908
2896,10.510019,4.257743,1.103685
2897,10.433451,3.843119,0.888148
2898,10.459740,3.463797,0.828422
2899,10.593191,3.184359,0.933222
2900,10.628747,2.852333,1.021404
2901,10.638391,2.523515,1.076402
2902,10.668736,2.202810,1.116512
2903,10.739178,1.923905,1.205863
2904,10.728516,1.596992,1.154170
2905,10.646385,1.259429,0.805745
2906,10.847209,0.870361,0.941041
2907,10.970834,0.510585,0.999927
2908,11.058048,0.170362,1.113405
2909,11.082804,-0.151818,1.244051
2910,11.084511,-0.424946,1.400747
2911,11.127443,-0.592324,1.604859
2912,11.170353,-0.634364,1.857551
2913,11.131715,-0.629424,2.134497
2914,10.965452,-0.709402,2.339433
2915,10.731684,-0.904340,2.432503
2916,10.509009,-1.158103,2.450210
2917,10.312028,-1.431797,2.435578
2918,10.125501,-1.712023,2.405379
2919,9.939822,-1.991666,2.361592
2920,9.752129,-2.267345,2.307622
2921,9.562466,-2.539702,2.246071
2922,9.371264,-2.811114,2.177824
2923,9.178718,-3.083423,2.105474
2924,8.985023,-3.357908,2.032308
2925,8.790145,-3.635281,1.961149
2926,8.594416,-3.914996,1.891786
2927,8.398100,-4.195906,1.822544
2928,8.200298,-4.476885,1.754678
2929,7.999765,-4.756419,1.690039
2930,7.795898,-5.033477,1.630106
2931,7.589129,-5.307894,1.576283
2932,7.381121,-5.579424,1.526519
2933,7.173277,-5.847907,1.478201
2934,6.965516,-6.113260,1.432926
2935,6.757091,-6.375026,1.394446
2936,6.546888,-6.631465,1.361112
2937,6.330487,-6.874148,1.329095
2938,6.099187,-7.087792,1.302660
2939,5.867417,-7.302846,1.281798
2940,5.697337,-7.646201,1.242999
2941,5.312685,-7.648395,1.270829
2942,4.943731,-7.637935,1.283277
2943,4.533142,-8.758415,1.177556
2944,4.655562,-8.431432,1.210995
2945,4.355686,-9.028355,1.155168
2946,4.163116,-9.299312,1.136502
2947,3.964568,-9.572871,1.114816
2948,3.763918,-9.834471,1.074185
2949,3.561829,-10.074396,0.988660
2950,3.379222,-10.308801,0.871138
2951,3.282909,-10.549598,0.803127
2952,3.090036,-10.657138,0.733938
2953,2.870067,-10.583546,0.774528
2954,2.675918,-10.507593,0.898961
2955,2.388735,-10.413703,0.959315
2956,1.972814,-10.273140,0.933259
2957,1.617753,-10.472622,0.876734
2958,1.358732,-10.286161,0.834487
2959,1.008002,-10.344546,0.737161
2960,0.711414,-10.631215,0.633430
2961,4.636363,-7.983474,1.253312
2962,4.530889,-7.482574,1.288177
2963,-8.200319,-2.283923,-6.420604
2964,-7.949359,-2.139057,-6.065307
2965,-7.675766,-2.047951,-5.715925
2966,-7.571749,-1.962361,-6.248380
2967,-7.493366,-1.890444,-6.714659
2968,-7.404026,-1.807244,-7.062082
2969,-7.279382,-1.686916,-7.345659
2970,-7.129212,-1.533867,-7.604080
2971,-6.944549,-1.352670,-7.803984
2972,-6.739831,-1.157382,-7.982276
2973,-6.594469,-0.988699,-8.280968
2974,-6.292025,-0.767581,-8.262145
2975,-6.012363,-0.555984,-8.396795
2976,-5.913159,-0.434088,-8.652488
2977,-5.690777,-0.337576,-8.478251
2978,-5.285830,-0.161812,-8.323535
2979,-5.389619,-0.098221,-8.818702
2980,-5.524445,-0.069772,-9.304246
2981,-5.677735,-0.072859,-9.794289
2982,-5.810239,-0.085264,-10.278917
2983,-5.888107,-0.085487,-10.754226
2984,-5.891234,-0.054325,-11.215728
2985,-5.888312,-0.029072,-11.623152
2986,-5.941507,-0.048423,-11.944477
2987,-5.685905,0.137143,-11.963759
2988,-5.360960,0.353072,-12.071334
2989,-5.031719,0.527483,-12.142266
2990,-4.736788,0.602950,-11.915390
2991,-4.317597,0.688925,-11.769770
2992,-3.812498,0.716945,-11.546992
2993,-3.295355,0.659334,-11.339964
2994,-2.376072,0.468727,-11.699007
2995,-2.633129,0.459333,-11.181391
2996,-2.189495,0.495855,-12.138268
2997,-2.049241,0.532029,-12.517405
2998,10.124368,0.945086,-1.236005
2999,10.097635,0.624790,-1.113970
3000,10.201081,0.421812,-0.828840
3001,10.370641,0.298489,-0.549088
3002,10.567266,0.326009,-0.231114
3003,10.520185,0.560597,-0.571884
3004,10.461695,0.882115,-0.801194
3005,10.372764,1.271348,-1.025526
3006,10.243528,1.667175,-1.294127
3007,10.081033,2.034783,-1.600768
3008,9.901483,2.370693,-1.915427
3009,9.712907,2.671701,-2.198775
3010,9.517872,2.934024,-2.422679
3011,9.323287,3.161090,-2.622438
3012,9.176294,3.329680,-2.859256
3013,9.002841,3.421177,-2.450015
3014,8.712784,3.685919,-2.260943
3015,8.481279,3.933491,-2.164629
3016,8.185115,4.194127,-2.498680
3017,8.290923,4.203361,-2.032739
3018,7.949579,4.377665,-3.043689
3019,7.920212,4.303727,-3.702992
3020,7.779456,4.435639,-4.235821
3021,-12.164967,-9.231151,0.002420
3022,-12.182515,-8.853272,-0.208781
3023,-12.234764,-8.479889,-0.442854
3024,-12.128653,-7.665550,-0.098480
3025,-12.303265,-7.736133,-0.556343
3026,-11.844553,-7.670928,0.278250
3027,-11.821035,-7.320974,-0.107332
3028,-11.783162,-7.021611,-0.512310
3029,-11.787998,-6.865249,-0.794375
3030,-11.495473,-6.726549,-0.765711
3031,-11.267485,-6.436464,-1.174312
3032,-11.067896,-6.226466,-1.502296
3033,-10.864995,-6.024128,-1.777437
3034,-10.672709,-5.797964,-1.971079
3035,-10.509310,-5.531571,-2.097955
3036,-10.420808,-5.234718,-2.325441
3037,-10.230432,-4.907593,-2.183001
3038,-10.050076,-4.555669,-2.187978
3039,-9.748601,-4.134555,-2.198163
3040,-9.416909,-3.626683,-2.468289
3041,-9.347196,-3.326771,-2.983878
3042,-9.183659,-3.072048,-3.415321
3043,-8.999783,-2.867552,-3.826420
3044,-8.822778,-2.693615,-4.266548
3045,-8.653500,-2.539757,-4.748203
3046,-8.491457,-2.414860,-5.274758
3047,-8.339664,-2.331914,-5.839229
3048,10.091836,5.120215,1.253349
3049,9.967615,4.692249,0.936630
3050,9.913236,4.289159,0.697500
3051,9.773983,3.875260,0.365578
3052,10.027902,3.490814,0.437665
3053,10.142672,3.153991,0.471716
3054,10.231628,2.833288,0.539654
3055,10.300020,2.522129,0.610038
3056,10.366119,2.229143,0.675895
3057,10.468912,1.925738,0.803192
3058,10.405292,1.664408,0.564714
3059,10.404367,1.381779,0.123960
3060,10.638509,0.928139,0.286812
3061,10.747257,0.500083,0.309953
3062,10.835409,0.157553,0.575850
3063,10.888297,-0.087939,0.804164
3064,10.811232,-0.246714,0.881795
3065,10.893576,-0.318323,1.215547
3066,10.955028,-0.279001,1.512668
3067,10.912753,-0.224141,1.801186
3068,10.733469,-0.265257,2.025857
3069,10.477839,-0.435882,2.149510
3070,10.232481,-0.685187,2.202201
3071,10.023999,-0.962207,2.222561
3072,9.832431,-1.243126,2.224043
3073,9.640507,-1.518421,2.208121
3074,9.443946,-1.787173,2.178759
3075,9.243775,-2.052383,2.140238
3076,9.042384,-2.317628,2.093076
3077,8.841062,-2.585448,2.038706
3078,8.640025,-2.857397,1.980979
3079,8.439254,-3.134406,1.923932
3080,8.238625,-3.415840,1.869631
3081,8.038066,-3.699566,1.816169
3082,7.836735,-3.983254,1.762448
3083,7.633044,-4.264857,1.710881
3084,7.426245,-4.543355,1.663249
3085,7.217134,-4.818865,1.619507
3086,7.007486,-5.091528,1.578323
3087,6.798687,-5.361316,1.538643
3088,6.590660,-5.627937,1.501697
3089,6.382868,-5.890267,1.469152
3090,6.174914,-6.146633,1.439920
3091,5.964876,-6.391973,1.410877
3092,5.747994,-6.613495,1.383253
3093,5.534389,-6.826643,1.359278
3094,5.390081,-7.142229,1.327574
3095,5.051763,-7.146688,1.330198
3096,4.775139,-7.176112,1.319953
3097,4.128586,-8.350298,1.203679
3098,4.270156,-8.106020,1.235698
3099,3.952536,-8.605003,1.168129
3100,3.757767,-8.857806,1.130451
3101,3.564294,-9.121484,1.082200
3102,3.384137,-9.379577,1.005752
3103,3.218107,-9.615982,0.871962
3104,3.064581,-9.851393,0.687887
3105,2.997202,-10.162517,0.602573
3106,2.815713,-10.131342,0.468646
3107,2.737680,-10.053564,0.575914
3108,2.622696,-9.922276,0.765726
3109,2.366827,-9.767611,0.864449
3110,1.944210,-9.424346,0.843413
3111,1.572029,-9.863096,0.888767
3112,1.184650,-9.734419,0.813751
3113,0.803098,-9.589340,0.727911
3114,0.447423,-9.982214,0.653878
3115,0.262676,-10.471885,0.577391
3116,0.144790,-10.838523,0.489618
3117,0.112912,-11.083826,0.427040
3118,-0.073529,-11.106044,0.391460
3119,-0.358758,-11.007912,0.376898
3120,-0.635911,-10.958506,0.360315
3121,-0.927617,-10.916867,0.349470
3122,-1.236728,-10.863026,0.347332
3123,-1.552763,-10.806695,0.352834
3124,-1.879505,-10.734288,0.369386
3125,-2.276364,-10.581777,0.409222
3126,-2.620889,-10.765423,0.409340
3127,-2.916399,-10.669352,0.455742
3128,-3.250309,-10.667574,0.500713
3129,-3.577052,-10.690317,0.552080
3130,-3.903038,-10.691193,0.613877
3131,-4.231304,-10.678425,0.683406
3132,-4.561514,-10.661016,0.758885
3133,-4.893776,-10.639222,0.841602
3134,-5.228367,-10.612039,0.932014
3135,-5.566534,-10.577933,1.025364
3136,-5.909519,-10.535075,1.115951
3137,-6.257545,-10.482431,1.203647
3138,-6.610806,-10.419991,1.289552
3139,-6.969556,-10.348074,1.370071
3140,-7.333729,-10.268485,1.441948
3141,-7.703152,-10.186481,1.507554
3142,-8.077135,-10.108230,1.567995
3143,-8.454181,-10.035901,1.621018
3144,-8.833166,-9.965840,1.666688
3145,-9.213975,-9.892706,1.707304
3146,-9.594986,-9.817469,1.742570
3147,-9.970972,-9.746288,1.765846
3148,-10.343692,-9.676236,1.764892
3149,-10.706063,-9.624407,1.740698
3150,-11.059974,-9.557102,1.675728
3151,-11.414231,-9.456699,1.542222
3152,-11.735332,-9.365561,1.320892
3153,-11.974392,-9.292749,0.983716
3154,-12.109791,-9.248707,0.530237
3155,7.564968,4.773017,-4.369110
3156,-0.947207,-0.723566,-12.112995
3157,-0.755453,-0.885687,-12.668998
3158,-1.108276,-0.639152,-11.570324
3159,-1.256263,-0.570754,-11.045842
3160,-1.140357,-0.852531,-10.566493
3161,-1.398993,-0.500206,-10.533676
3162,-0.934017,-1.203805,-10.562339
3163,-0.748904,-1.535266,-10.533602
3164,-0.577090,-1.821978,-10.560989
3165,-0.401239,-2.110574,-10.324304
3166,-0.334569,-2.244946,-9.810829
3167,0.105371,-3.007621,-9.354886
3168,0.243434,-3.243032,-9.244097
3169,0.411688,-3.499268,-9.367043
3170,0.502089,-3.659161,-9.068506
3171,0.598046,-3.832914,-8.812918
3172,0.699801,-4.038457,-8.554208
3173,0.804496,-4.313857,-8.249688
3174,0.877969,-4.641464,-8.237508
3175,0.839664,-4.588316,-7.741003
3176,0.874676,-4.866094,-7.854094
3177,0.903651,-5.013122,-8.002868
3178,0.990567,-4.976375,-8.176440
3179,1.081203,-4.782628,-8.327950
3180,1.078824,-4.502004,-8.459341
3181,1.001208,-4.229478,-8.717604
3182,0.803496,-3.928182,-8.636015
3183,0.632177,-3.657978,-8.681094
3184,0.462430,-3.380080,-8.710792
3185,0.273686,-3.067400,-8.703651
3186,0.060354,-2.712057,-8.628549
3187,-0.178369,-2.333539,-8.485823
3188,-0.434344,-1.945823,-8.339063
3189,-0.693506,-1.555383,-8.227284
3190,-0.930114,-1.176600,-8.164590
3191,-1.113733,-0.791587,-8.599165
3192,-1.106996,-0.812322,-8.127706
3193,-1.103988,-0.793425,-9.099879
3194,-1.061754,-0.831819,-9.635226
3195,-0.968572,-0.922716,-10.197111
3196,-0.822856,-1.076065,-10.762714
3197,-0.114291,-2.632741,-9.487841
3198,-0.353490,-2.256876,-9.313208
3199,-0.968046,-0.732467,-10.857570
3200,-1.058020,-0.160814,-10.840914
3201,-0.961462,0.006388,-11.414406
3202,-0.930245,0.539267,-10.984981
3203,-0.756036,1.059815,-10.633528
3204,-0.551893,1.437552,-10.321197
3205,-0.150410,1.859364,-10.096432
3206,0.358477,2.217821,-9.970846
3207,0.768091,2.466704,-9.824181
3208,1.143429,2.687904,-9.708079
3209,1.560839,2.919698,-9.631679
3210,-0.100219,-10.629155,0.495049
3211,-0.370588,-10.496155,0.484321
3212,-0.654774,-10.416087,0.470359
3213,-0.954324,-10.345828,0.459652
3214,-1.263261,-10.277825,0.453100
3215,-1.573910,-10.211382,0.453481
3216,-1.904221,-10.090410,0.467447
3217,-2.306344,-9.757460,0.507042
3218,-2.649067,-10.172146,0.495473
3219,-3.016386,-10.036185,0.546583
3220,-3.344187,-10.044721,0.591410
3221,-3.659498,-10.072107,0.644412
3222,-3.980438,-10.075285,0.707155
3223,-4.305447,-10.067385,0.776153
3224,-4.632667,-10.055637,0.851289
3225,-4.962419,-10.039393,0.934191
3226,-5.295921,-10.016563,1.022614
3227,-5.634331,-9.984873,1.111471
3228,-5.977876,-9.942744,1.198355
3229,-6.327159,-9.889660,1.283050
3230,-6.683368,-9.825711,1.362504
3231,-7.046742,-9.751230,1.431599
3232,-7.417056,-9.669178,1.489023
3233,-7.793783,-9.586283,1.536090
3234,-8.174805,-9.510645,1.573372
3235,-8.557280,-9.446221,1.602824
3236,-8.940301,-9.387917,1.627746
3237,-9.324592,-9.326362,1.648259
3238,-9.707731,-9.259317,1.660158
3239,-10.091611,-9.185274,1.654814
3240,-10.519611,-9.090477,1.616811
3241,-10.835275,-9.219935,1.636475
3242,-11.128236,-9.096772,1.537551
3243,-11.469251,-8.988329,1.375871
3244,-11.787831,-8.906591,1.133086
3245,-12.031745,-8.852700,0.783594
3246,-12.162340,-8.835760,0.325469
3247,-8.082401,-2.207977,-5.499287
3248,-7.795311,-2.146242,-5.158536
3249,-7.486661,-2.119691,-4.823339
3250,-7.381219,-1.986037,-5.379274
3251,-7.289750,-1.860512,-5.927786
3252,-7.257233,-1.773922,-6.450330
3253,-7.289425,-1.756933,-6.778326
3254,-7.095835,-1.622702,-6.804981
3255,-6.905714,-1.438669,-7.079897
3256,-6.712863,-1.260151,-7.277894
3257,-6.503056,-1.075612,-7.449579
3258,-6.280686,-0.880157,-7.674401
3259,-5.943307,-0.654486,-7.755174
3260,-5.628152,-0.423140,-7.971772
3261,-5.173714,-0.247124,-7.778486
3262,-4.702768,-0.091274,-7.731936
3263,-4.822305,0.002585,-8.255269
3264,-4.935913,0.076885,-8.761073
3265,-5.079856,0.124415,-9.264159
3266,-5.250593,0.138995,-9.747605
3267,-5.379238,0.143988,-10.203630
3268,-5.449839,0.162018,-10.629562
3269,-5.444387,0.203579,-11.042449
3270,-5.450408,0.238679,-11.544656
3271,-5.023212,0.469530,-11.747452
3272,8.051667,3.685939,-3.189385
3273,8.172833,3.485492,-2.749577
3274,8.168030,3.307456,-2.347464
3275,8.212911,3.057816,-1.869373
3276,8.283020,2.770605,-1.381050
3277,8.372579,2.453978,-0.898419
3278,8.478882,2.105073,-0.424645
3279,8.920178,1.844839,-0.089050
3280,8.614270,1.727421,0.034653
3281,9.223198,1.934629,-0.243560
3282,9.514933,1.974645,-0.426261
3283,9.772792,1.936992,-0.618040
3284,9.974226,1.809398,-0.825156
3285,10.099024,1.633612,-1.126523
3286,10.217801,1.257773,-1.014360
3287,10.267618,0.993259,-0.842924
3288,10.224464,0.657632,-0.720699
3289,10.294284,0.326313,-0.380093
3290,10.436349,0.135185,-0.113624
3291,10.626003,0.104304,0.169906
3292,10.634213,0.640553,-0.170993
3293,10.525962,0.937349,-0.301641
3294,10.364992,1.311592,-0.508093
3295,10.194773,1.688082,-0.795119
3296,10.019150,2.036299,-1.098948
3297,9.835660,2.356457,-1.391696
3298,9.645668,2.652473,-1.647962
3299,9.449656,2.922652,-1.853823
3300,9.242523,3.173606,-2.057666
3301,-12.121518,-8.030289,0.250396
3302,-12.282793,-8.061099,-0.201896
3303,-11.842443,-8.056937,0.619315
3304,-11.507844,-7.734442,0.587012
3305,-11.504325,-8.136649,0.912826
3306,-11.499463,-7.362762,0.208054
3307,-11.475753,-7.027016,-0.218051
3308,7.635880,4.739881,-3.629259
3309,7.704454,4.881957,-2.890372
3310,7.773027,5.064199,-2.373100
3311,7.858809,5.227978,-1.979610
3312,8.024465,5.270908,-1.541291
3313,8.250919,5.313040,-1.021176
3314,8.461288,5.244480,-0.616468
3315,8.681934,5.253255,-0.240417
3316,9.026479,5.190112,0.225304
3317,9.497387,5.186615,0.740539
3318,-1.316008,-0.229315,-11.965424
3319,-1.138931,-0.278773,-12.561207
3320,-1.474081,-0.207190,-11.442860
3321,-1.612659,-0.191771,-10.947952
3322,-1.735806,-0.174001,-10.479310
3323,-1.551153,-0.422404,-10.024770
3324,-1.872101,-0.143348,-10.015270
3325,-1.292393,-0.731854,-10.022200
3326,-1.080806,-1.050406,-10.000738
3327,-0.893109,-1.359476,-9.957351
3328,-0.681372,-1.696660,-9.953374
3329,-0.532352,-1.933576,-9.796714
3330,-0.491926,-2.013828,-9.534405
3331,-0.511280,-2.018646,-9.187516
3332,-0.582693,-1.950862,-8.753505
3333,-0.402144,-2.234481,-8.779287
3334,-0.208757,-2.541882,-8.823172
3335,-0.011414,-2.864667,-8.843910
3336,0.166136,-3.152166,-8.877192
3337,0.310295,-3.373075,-8.988390
3338,0.337705,-3.444770,-8.691821
3339,0.411611,-3.594954,-8.343516
3340,-0.651140,-1.788105,-9.339195
3341,-0.760042,-1.667970,-8.753194
3342,-0.811799,-1.615149,-8.182703
3343,-0.631682,-1.916262,-8.183051
3344,-0.443990,-2.220453,-8.210197
3345,-0.250814,-2.531465,-8.231712
3346,-0.048767,-2.860371,-8.272555
3347,0.152918,-3.177591,-8.422925
3348,0.192160,-3.295509,-7.854685
3349,0.365777,-3.632470,-7.388787
3350,0.535253,-3.834583,-7.980327
3351,0.674138,-4.182506,-7.512730
3352,0.490858,-3.908413,-6.974040
3353,0.585548,-4.145097,-6.519712
3354,0.718365,-4.401442,-6.901063
3355,0.804460,-4.685908,-7.177454
3356,0.866570,-4.944546,-7.364501
3357,0.956617,-5.080242,-7.544934
3358,1.054078,-5.010817,-7.711607
3359,1.090466,-4.763048,-7.851423
3360,1.057926,-4.504643,-8.018278
3361,0.913252,-4.179260,-8.075599
3362,0.704963,-3.840473,-8.043296
3363,0.535799,-3.550204,-8.099746
3364,0.362215,-3.258980,-8.132328
3365,0.174123,-2.948394,-8.117022
3366,-0.027957,-2.615682,-8.064556
3367,-0.248799,-2.262693,-7.962751
3368,-0.486875,-1.892589,-7.848463
3369,-0.728576,-1.523546,-7.760583
3370,-0.945078,-1.163305,-7.706866
3371,-1.097937,-0.813954,-7.680683
3372,-1.200423,-0.455547,-8.067316
3373,-1.172652,-0.493140,-7.639682
3374,-1.221214,-0.412882,-8.550287
3375,-1.220099,-0.404746,-9.068248
3376,-1.188237,-0.442613,-9.629155
3377,-1.109409,-0.536462,-10.237819
3378,7.826959,3.534131,-2.739368
3379,7.862271,3.276900,-2.203154
3380,7.860771,2.976988,-1.681922
3381,8.022912,2.667238,-1.193234
3382,8.050898,2.366902,-0.775145
3383,8.164361,1.991485,-0.306036
3384,8.307231,1.594584,0.136538
3385,8.454826,1.165399,0.557799
3386,8.766874,1.315421,0.477851
3387,9.069173,1.467270,0.365585
3388,9.369128,1.583154,0.227842
3389,9.662730,1.649585,0.052973
3390,9.921938,1.639265,-0.146442
3391,10.108611,1.538527,-0.360585
3392,10.223071,1.365575,-0.639242
3393,10.294344,1.157686,-0.733282
3394,10.318768,0.977046,-0.527813
3395,10.361857,0.650320,-0.235461
3396,10.440277,0.312958,0.063160
3397,10.578849,-0.001607,0.382948
3398,10.709676,-0.099722,0.501349
3399,-1.582669,0.250583,-12.697959
3400,-1.040784,0.460338,-10.478593
3401,-0.884649,0.984062,-10.171332
3402,-0.620129,1.447486,-9.892096
3403,-0.338960,1.830203,-9.529242
3404,0.099734,2.172748,-9.468953
3405,0.496834,2.418670,-9.315476
3406,0.841531,2.614921,-9.164360
3407,1.167333,2.787083,-9.121616
3408,1.441311,2.965728,-8.821258
3409,1.575213,3.092918,-8.339135
3410,1.680188,3.190247,-7.951420
3411,1.720656,3.258914,-7.524349
3412,1.734932,3.306755,-7.016942
3413,1.793166,3.336495,-6.481234
3414,1.885376,3.334217,-5.970038
3415,2.027759,3.311792,-5.494453
3416,2.205870,3.263437,-5.033831
3417,2.386545,3.182734,-4.589376
3418,2.795324,3.412800,-4.790659
3419,3.227584,3.622922,-5.035968
3420,3.626129,3.788413,-5.287358
3421,3.843886,3.874529,-5.469653
3422,4.065567,3.888020,-5.357885
3423,4.297842,3.858288,-5.055414
3424,4.547483,3.840769,-4.791921
3425,4.799642,3.827834,-4.532666
3426,5.044957,3.806216,-4.248667
3427,5.299187,3.778260,-3.967918
3428,5.581858,3.726011,-3.653816
3429,5.844726,3.760609,-3.585166
3430,5.831344,3.627450,-3.311398
3431,5.916833,3.424790,-2.877705
3432,6.069032,3.209887,-2.438527
3433,6.224939,2.974570,-2.013369
3434,6.680164,2.907286,-1.779403
3435,6.380095,2.713084,-1.591390
3436,6.981291,3.095162,-2.000386
3437,7.252396,3.281218,-2.259239
3438,7.510921,3.429938,-2.496302
3439,-10.990510,-6.526811,-0.726233
3440,-11.096933,-6.791633,-0.337929
3441,-10.823457,-6.300705,-1.035030
3442,-10.641543,-6.085379,-1.270679
3443,-10.461478,-5.847701,-1.433073
3444,-10.296742,-5.574622,-1.528859
3445,-10.156650,-5.228947,-1.654648
3446,-9.936628,-4.860969,-1.613180
3447,-9.722357,-4.519580,-1.644315
3448,-9.491647,-4.232137,-1.657567
3449,-9.330441,-3.885472,-1.929616
3450,-8.904997,-2.992976,-3.046763
3451,-9.038952,-3.231832,-2.665701
3452,-8.726022,-2.777986,-3.437970
3453,-8.547199,-2.591955,-3.883062
3454,-8.379912,-2.433654,-4.385663
3455,-8.225398,-2.304465,-4.931241
3456,-1.665466,0.197816,-12.272523
3457,-1.807165,0.176606,-11.797023
3458,-1.970829,0.162266,-11.306860
3459,-2.081674,0.133547,-10.836408
3460,-2.147730,0.101598,-10.410364
3461,-2.247963,0.093399,-9.995222
3462,-2.037409,-0.099621,-9.542857
3463,-2.388751,0.100882,-9.567755
3464,-1.719426,-0.343346,-9.503729
3465,-1.446391,-0.620824,-9.473613
3466,-1.221313,-0.915513,-9.436919
3467,-1.026067,-1.208284,-9.389690
3468,-0.843141,-1.493438,-9.346741
3469,-1.169534,-0.061948,-10.138517
3470,-1.126149,0.445948,-9.910648
3471,-0.974371,0.936618,-9.653504
3472,-0.745304,1.383320,-9.389431
3473,-0.530572,1.706572,-9.112404
3474,-0.180347,2.055056,-8.929394
3475,0.245655,2.362383,-8.813664
3476,0.571801,2.544355,-8.755650
3477,0.876643,2.721503,-8.562802
3478,1.108114,2.881840,-8.248627
3479,1.297993,3.020392,-7.903616
3480,1.510084,3.140342,-7.763422
3481,1.424543,3.131366,-7.452587
3482,1.391962,3.140778,-6.924276
3483,1.441294,3.144259,-6.370626
3484,1.531735,3.121741,-5.843349
3485,1.659350,3.078343,-5.344391
3486,1.821222,3.016644,-4.873376
3487,2.004394,2.935263,-4.426851
3488,2.192234,2.826153,-3.999606
3489,2.565771,3.075262,-4.164095
3490,2.965042,3.300179,-4.348559
3491,3.379428,3.519373,-4.601376
3492,3.765996,3.721707,-4.934492
3493,3.977973,3.628380,-4.518390
3494,4.356316,3.659801,-4.352751
3495,4.538046,3.601193,-4.059308
3496,4.802156,3.568700,-3.788348
3497,5.079730,3.527657,-3.510526
3498,5.409575,3.436254,-3.130517
3499,5.584925,3.218939,-2.636976
3500,5.756173,3.001632,-2.211803
3501,5.923824,2.762497,-1.805672
3502,6.089236,2.500497,-1.409028
3503,6.532619,2.419707,-1.170251
3504,6.249163,2.208324,-1.017123
3505,6.826866,2.615171,-1.325646
3506,7.136929,2.806156,-1.510720
3507,7.420837,3.021096,-1.786788
3508,7.594403,3.218552,-2.088246
3509,8.986819,3.495158,-1.678629
3510,8.734590,3.768461,-1.697384
3511,8.548919,3.971956,-1.734924
3512,8.448677,4.182475,-1.551830
3513,8.153777,4.498543,-1.857350
3514,8.351159,4.455566,-1.377420
3515,7.959523,4.571948,-2.410487
3516,-7.925988,-2.263543,-4.591320
3517,-7.604821,-2.269268,-4.257234
3518,-7.266512,-2.302669,-3.936277
3519,-7.160027,-2.114002,-4.492104
3520,-7.065291,-1.942882,-5.038180
3521,-6.977747,-1.778191,-5.579994
3522,-6.900084,-1.609955,-6.167089
3523,-6.682754,-1.393002,-6.539069
3524,-6.481258,-1.213347,-6.755214
3525,-6.274138,-1.040654,-6.933267
3526,-6.124534,-0.899034,-7.136406
3527,-5.855939,-0.748073,-7.147642
3528,-5.495157,-0.531511,-7.273771
3529,-5.027682,-0.343871,-7.198948
3530,-4.589572,-0.208607,-7.185402
3531,-4.217764,0.008307,-7.728660
3532,-4.123944,-0.123226,-7.187863
3533,-4.329283,0.116994,-8.254048
3534,-4.504874,0.177348,-8.676841
3535,-4.508778,0.274677,-9.222477
3536,-4.793465,0.302848,-9.749642
3537,-4.973769,0.309931,-10.163494
3538,-5.043953,0.330672,-10.519874
3539,-5.085858,0.353601,-10.839805
3540,-4.929870,0.443652,-11.197762
3541,-4.580244,0.590567,-11.485648
3542,-0.938442,-1.384355,-8.776424
3543,-1.000898,-1.314731,-8.204468
3544,-1.102129,-1.228239,-7.544865
3545,-0.849051,-1.577457,-7.604798
3546,-0.659479,-1.897574,-7.610078
3547,-0.472983,-2.212131,-7.627526
3548,-0.280969,-2.527417,-7.648946
3549,-0.077326,-2.864028,-7.684564
3550,0.227900,-3.452598,-6.836593
3551,0.341544,-3.694060,-6.491299
3552,0.441109,-3.923519,-6.096224
3553,0.675946,-4.365312,-6.053363
3554,0.537296,-4.150320,-5.669154
3555,0.788084,-4.615926,-6.390011
3556,0.834490,-4.871202,-6.654768
3557,0.879656,-5.069177,-6.862168
3558,1.002935,-5.146708,-7.056000
3559,1.125391,-5.051638,-7.237386
3560,1.121162,-4.780509,-7.361539
3561,1.008288,-4.438702,-7.567130
3562,0.811348,-4.097842,-7.433741
3563,0.589165,-3.721696,-7.394704
3564,0.436750,-3.428144,-7.628132
3565,0.272595,-3.161752,-7.556510
3566,0.083652,-2.849608,-7.538919
3567,-0.111752,-2.524968,-7.507597
3568,-0.323671,-2.179102,-7.434733
3569,-0.551085,-1.822974,-7.352896
3570,-0.777133,-1.466611,-7.287224
3571,-0.981156,-1.052482,-7.212211
3572,-1.110487,-0.690420,-7.326897
3573,-1.157653,-0.483076,-7.385273
3574,-1.183980,-0.200647,-7.508532
3575,-1.142662,-0.363967,-7.193400
3576,-1.218389,-0.102507,-7.940656
3577,-1.243560,-0.032192,-8.436791
3578,-1.248209,-0.001445,-8.965923
3579,-1.226464,-0.013125,-9.529893
3580,-0.032828,-10.152763,0.575643
3581,-0.346848,-9.967459,0.558565
3582,-0.652758,-9.856886,0.543926
3583,-0.962314,-9.768303,0.530212
3584,-1.271716,-9.695371,0.518202
3585,-1.574419,-9.628648,0.512007
3586,-1.881525,-9.499645,0.515647
3587,-2.159406,-9.250362,0.524431
3588,-2.777841,-9.513016,0.550880
3589,-3.134207,-9.405618,0.590874
3590,-3.439836,-9.424587,0.635096
3591,-3.746509,-9.447138,0.689723
3592,-4.063821,-9.452130,0.752688
3593,-4.384884,-9.451347,0.821562
3594,-4.707453,-9.447671,0.897175
3595,-5.033398,-9.437455,0.978678
3596,-5.366013,-9.417945,1.063318
3597,-5.705643,-9.389035,1.149405
3598,-6.050874,-9.349000,1.234197
3599,-6.402797,-9.295531,1.313285
3600,-6.763353,-9.228700,1.382313
3601,-7.133024,-9.151030,1.437934
3602,-7.511657,-9.067160,1.477768
3603,-7.897610,-8.984265,1.501641
3604,-8.287205,-8.912965,1.512478
3605,-8.675518,-8.860976,1.516238
3606,-9.059719,-8.822061,1.517555
3607,-9.441910,-8.779498,1.513401
3608,-9.825045,-8.722140,1.497870
3609,-10.226984,-8.638687,1.457790
3610,-10.702359,-8.511261,1.362639
3611,-10.855147,-8.882405,1.519498
3612,-11.138038,-8.685300,1.371721
3613,-11.495576,-8.554806,1.171959
3614,-11.823631,-8.471173,0.903082
3615,-12.085050,-8.429963,0.542658
3616,-12.228622,-8.434987,0.085384
3617,10.178837,1.745732,-0.286397
3618,10.000370,2.070839,-0.598483
3619,9.824425,2.376800,-0.865011
3620,9.640687,2.671052,-1.087673
3621,9.448242,2.953172,-1.262077
3622,9.241295,3.221976,-1.420562
3623,7.921555,4.863008,-2.059956
3624,7.947251,5.036625,-1.825651
3625,8.073922,4.979590,-1.550501
3626,8.224515,5.018106,-1.194708
3627,8.433239,5.002672,-0.768642
3628,8.668329,4.923609,-0.382727
3629,8.983972,4.817279,0.030728
3630,9.426422,4.741193,0.495359
3631,-11.129036,-8.271354,1.148708
3632,-11.142146,-7.847743,0.845256
3633,-11.151267,-7.453847,0.482804
3634,-11.139053,-7.100595,0.083095
3635,-9.045259,-3.473806,-2.237180
3636,-8.934207,-3.716433,-1.776461
3637,10.203211,1.864178,0.142983
3638,10.044596,2.141458,-0.136598
3639,9.890835,2.430198,-0.352325
3640,9.726555,2.724756,-0.526245
3641,9.549257,3.022603,-0.656995
3642,9.339508,3.328052,-0.771056
3643,9.088534,3.601942,-0.959125
3644,8.848116,3.807398,-1.193825
3645,8.669500,3.945479,-1.396762
3646,8.637197,4.135102,-1.126588
3647,8.583682,4.458551,-0.857842
3648,8.274027,4.738355,-1.266008
3649,8.428570,4.773200,-0.905039
3650,8.086248,4.767174,-1.688308
3651,-10.747638,-7.998774,1.052429
3652,-10.782287,-7.575533,0.711650
3653,-10.795743,-7.204944,0.340172
3654,-10.770031,-6.891278,-0.030206
3655,-10.689975,-6.631027,-0.357230
3656,-10.557696,-6.406149,-0.612529
3657,-10.394396,-6.188302,-0.795049
3658,-10.221491,-5.950191,-0.917275
3659,-10.050786,-5.680780,-0.991504
3660,-9.881789,-5.383467,-1.040019
3661,-9.692312,-5.065694,-1.079302
3662,-9.479377,-4.724889,-1.151983
3663,-9.284209,-4.366686,-1.303931
3664,-9.178248,-4.058897,-1.532456
3665,-8.799366,-4.049864,-1.285309
3666,-8.359411,-3.934537,-1.196447
3667,-8.515300,-3.649750,-1.614767
3668,-8.656826,-3.376009,-2.081268
3669,-8.765952,-3.195140,-2.446377
3670,-8.615679,-3.001720,-2.715823
3671,-8.421406,-2.788637,-3.069065
3672,-8.236110,-2.584369,-3.516504
3673,-8.071722,-2.408011,-4.034500
3674,-4.119750,0.655868,-11.236088
3675,-3.677308,0.650564,-10.989006
3676,-3.173138,0.556432,-10.747797
3677,-8.930784,-4.526630,-0.886573
3678,-8.369677,-4.357027,-0.772813
3679,-8.041112,-4.100665,-0.926426
3680,-8.057666,-3.758088,-1.326645
3681,-8.176209,-3.401839,-1.845154
3682,-8.361209,-3.132003,-2.335197
3683,10.717419,0.027012,0.823070
3684,10.779239,0.123942,1.163028
3685,10.708259,0.195812,1.454301
3686,10.500320,0.160679,1.681741
3687,10.223907,0.004581,1.826586
3688,9.963480,-0.237664,1.912737
3689,9.751474,-0.518374,1.972063
3690,9.562443,-0.796935,2.008747
3691,9.367410,-1.059431,2.020339
3692,9.161383,-1.313301,2.013717
3693,8.949061,-1.566463,1.994955
3694,8.735226,-1.822734,1.965839
3695,8.522680,-2.084143,1.927927
3696,8.312005,-2.352508,1.885607
3697,8.103123,-2.628889,1.843554
3698,7.895961,-2.912157,1.803965
3699,7.689884,-3.198851,1.766232
3700,7.483422,-3.485447,1.728601
3701,7.274799,-3.769511,1.691889
3702,7.063362,-4.049968,1.657484
3703,6.850095,-4.327087,1.624918
3704,6.637129,-4.601342,1.592485
3705,6.426093,-4.872911,1.559542
3706,6.216710,-5.141559,1.528798
3707,6.008044,-5.406191,1.502660
3708,5.800148,-5.665060,1.478579
3709,5.593143,-5.915626,1.452453
3710,5.386064,-6.150804,1.425106
3711,5.183537,-6.372363,1.399116
3712,5.008753,-6.657137,1.368778
3713,4.768266,-6.815318,1.345068
3714,4.093946,-6.815982,1.283365
3715,4.458759,-7.059522,1.308682
3716,4.085757,-7.199339,1.264079
3717,4.144305,-7.676083,1.247217
3718,-1.128537,-1.099391,-8.822253
3719,-1.220865,-1.015596,-8.238953
3720,-1.395924,-0.897490,-7.649589
3721,-1.176294,-1.222853,-6.912348
3722,-1.414575,-0.987374,-7.025770
3723,-0.913519,-1.535279,-6.938164
3724,-0.679934,-1.888800,-7.035129
3725,-0.494071,-2.208494,-7.054829
3726,-0.309050,-2.515888,-7.082580
3727,-0.123197,-2.824953,-7.111905
3728,0.090092,-3.182073,-7.210993
3729,0.311987,-3.727928,-5.667260
3730,0.216039,-3.507740,-6.044095
3731,0.411684,-3.962019,-5.266370
3732,0.636985,-4.381156,-5.247566
3733,0.518490,-4.209076,-4.877779
3734,0.767852,-4.579530,-5.598850
3735,0.866960,-4.817430,-5.911505
3736,0.894985,-5.060245,-6.167248
3737,0.925152,-5.212682,-6.368738
3738,1.046951,-5.210807,-6.542550
3739,1.166165,-5.064417,-6.725283
3740,1.166288,-4.848555,-6.924698
3741,0.995061,-4.481493,-6.926887
3742,0.708451,-4.022398,-6.731014
3743,0.501201,-3.644892,-6.785200
3744,0.385058,-3.401553,-7.089889
3745,0.186761,-3.080575,-6.971701
3746,-0.001126,-2.762736,-6.972181
3747,-0.190812,-2.439670,-6.957804
3748,-0.397331,-2.101417,-6.909177
3749,-0.614122,-1.758436,-6.853195
3750,-0.818815,-1.387345,-6.781383
3751,-0.972207,-0.945754,-6.653848
3752,-1.075820,-0.624928,-6.952968
3753,-1.036793,-0.379609,-6.462757
3754,-1.107774,-0.109237,-6.895832
3755,-1.148567,0.103243,-7.287792
3756,-1.178235,0.250305,-7.744380
3757,-1.196956,0.349381,-8.252305
3758,-1.197871,0.409572,-8.787181
3759,-1.175876,0.436844,-9.341660
3760,10.267419,1.987569,0.435201
3761,10.160438,2.213250,0.270571
3762,10.048607,2.488901,0.137095
3763,9.923080,2.787743,0.021703
3764,9.783978,3.100975,-0.063021
3765,9.598628,3.436993,-0.131165
3766,9.269573,3.852860,-0.273983
3767,8.886534,4.038357,-0.723184
3768,8.904166,4.442318,-0.312687
3769,8.612047,4.711446,-0.592511
3770,9.366548,4.330028,0.218558
3771,7.633380,2.664416,-1.220907
3772,7.721634,2.250010,-0.664520
3773,7.852998,1.856730,-0.204352
3774,8.000642,1.444018,0.223301
3775,8.151139,1.007698,0.621334
3776,8.540126,0.766084,0.890367
3777,8.317316,0.550386,0.984740
3778,8.922509,0.802337,0.944325
3779,9.240350,1.056746,0.802229
3780,9.541630,1.212894,0.671321
3781,9.839360,1.306731,0.503054
3782,10.102020,1.320071,0.291561
3783,10.273340,1.237805,0.052618
3784,10.332136,1.095006,-0.218251
3785,10.456660,0.764239,0.126490
3786,10.579927,0.401565,0.459482
3787,-2.543785,-9.152217,0.537400
3788,-2.359347,-8.883899,0.524936
3789,-2.585753,0.360774,-10.669589
3790,-2.557331,0.298877,-10.319784
3791,-2.626870,0.274409,-9.979039
3792,-2.765330,0.262424,-9.589505
3793,-2.539937,0.108803,-9.171111
3794,-2.893762,0.237308,-9.199222
3795,-2.235821,-0.036562,-9.182976
3796,-1.960691,-0.243556,-8.952985
3797,-1.599348,-0.531657,-8.912915
3798,-1.344218,-0.811605,-8.866905
3799,-7.740302,-2.446013,-3.693492
3800,-7.389444,-2.518831,-3.372000
3801,-7.019875,-2.596236,-3.091644
3802,-6.913570,-2.346617,-3.639045
3803,-6.817251,-2.123020,-4.171007
3804,-6.729915,-1.917462,-4.693714
3805,-6.649842,-1.726450,-5.203255
3806,-6.561843,-1.544643,-5.672626
3807,-6.424902,-1.365139,-6.031618
3808,-6.240344,-1.194245,-6.264606
3809,-6.051171,-1.035157,-6.456211
3810,-5.891567,-0.878775,-6.707586
3811,-5.582664,-0.742547,-6.646304
3812,-5.260177,-0.601904,-6.636834
3813,-4.888517,-0.462839,-6.630431
3814,-4.479800,-0.348818,-6.633116
3815,-4.032866,-0.275717,-6.640511
3816,-3.626594,-0.102008,-7.183641
3817,-3.570339,-0.258808,-6.638346
3818,-3.706948,0.040475,-7.732052
3819,-3.809215,0.163638,-8.254933
3820,-3.966663,0.267132,-8.820494
3821,-3.961766,0.375954,-9.382134
3822,-4.268782,0.431409,-9.853572
3823,-4.622729,0.428123,-10.224010
3824,-4.413508,0.572795,-10.951037
3825,-4.702608,0.467427,-10.673171
3826,0.018570,-9.579700,0.609756
3827,-0.324943,-9.393951,0.585245
3828,-0.645502,-9.275026,0.572090
3829,-0.965525,-9.179804,0.558994
3830,-1.277931,-9.111578,0.543804
3831,-1.577468,-9.058273,0.531342
3832,-1.894203,-8.949990,0.523434
3833,-2.113128,-8.983521,0.523858
3834,-2.179950,-8.659318,0.514651
3835,-2.532031,-8.460818,0.512314
3836,-2.348242,-8.167645,0.485136
3837,-2.662102,-8.715502,0.533186
3838,-2.915337,-8.845389,0.558030
3839,-3.235596,-8.798596,0.591589
3840,-3.526504,-8.806727,0.633851
3841,-3.833329,-8.818386,0.687851
3842,-4.148042,-8.828393,0.750405
3843,-4.462855,-8.838176,0.819776
3844,-4.778448,-8.841408,0.894096
3845,-5.100812,-8.832351,0.971562
3846,-5.434288,-8.814639,1.053841
3847,-5.776865,-8.790927,1.139534
3848,-6.125797,-8.755872,1.221351
3849,-6.482454,-8.703095,1.292939
3850,-6.849072,-8.633303,1.350366
3851,-7.226160,-8.553518,1.389778
3852,-7.612807,-8.469151,1.408797
3853,-8.008055,-8.385663,1.407666
3854,-8.408962,-8.316792,1.389224
3855,-8.804141,-8.280712,1.363900
3856,-9.184439,-8.272461,1.339422
3857,-9.557109,-8.259486,1.310401
3858,-9.935336,-8.218282,1.267215
3859,-10.335043,-8.135393,1.191734
3860,-10.403763,-7.689858,0.877559
3861,-10.451598,-7.303162,0.536274
3862,-10.471413,-6.990837,0.207838
3863,-10.425551,-6.755061,-0.052542
3864,-10.297398,-6.554176,-0.228362
3865,-10.130203,-6.343588,-0.350163
3866,-9.954989,-6.111642,-0.434303
3867,-9.775463,-5.852837,-0.492062
3868,-9.589706,-5.564474,-0.539708
3869,-9.384279,-5.259193,-0.587760
3870,-9.147588,-4.926422,-0.675464
3871,-8.101615,-2.897179,-2.680451
3872,-7.901645,-2.656581,-3.155641
3873,3.736935,-7.836476,1.172582
3874,3.557385,-8.164323,1.111036
3875,3.360989,-8.419656,1.039642
3876,3.173772,-8.674295,0.953391
3877,3.021306,-8.927188,0.834654
3878,2.909272,-9.162175,0.657344
3879,2.804893,-9.389613,0.417832
3880,2.711457,-9.667585,0.236416
3881,2.645493,-9.738295,0.211320
3882,2.604728,-9.489827,0.302801
3883,2.572668,-9.443553,0.615527
3884,2.369189,-9.213569,0.655323
3885,2.106631,-8.937655,0.660980
3886,1.385227,-9.107321,0.798637
3887,1.022101,-9.181919,0.758412
3888,0.775227,-8.982398,0.688196
3889,0.427338,-9.135649,0.634540
3890,0.022061,-8.928750,0.574292
3891,-0.314726,-8.789449,0.552310
3892,-0.645302,-8.672406,0.549462
3893,-0.976016,-8.577005,0.543067
3894,-1.296220,-8.518691,0.527904
3895,-1.609177,-8.473955,0.512904
3896,-1.949197,-8.348622,0.497393
3897,1.707354,-8.807374,0.729042
3898,1.912721,-8.566749,0.578504
3899,-4.013883,0.602778,-10.688731
3900,-3.646499,0.573665,-10.428745
3901,-1.040296,0.884880,-9.110220
3902,-0.834448,1.306745,-8.871004
3903,-0.570023,1.683869,-8.649222
3904,-0.338638,1.947870,-8.407277
3905,-0.007087,2.235733,-8.252778
3906,0.424403,2.524522,-8.206632
3907,0.717469,2.704039,-8.052556
3908,0.865619,2.811711,-7.803124
3909,1.040377,2.936333,-7.396014
3910,1.048187,2.943695,-6.806770
3911,1.097910,2.923598,-6.257974
3912,1.181922,2.880270,-5.729123
3913,1.306061,2.821851,-5.221013
3914,1.466387,2.750676,-4.736757
3915,1.650199,2.660711,-4.277150
3916,1.846329,2.545057,-3.841045
3917,2.046999,2.408393,-3.426144
3918,2.372952,2.687887,-3.592039
3919,2.716357,2.931711,-3.750313
3920,3.500764,3.362253,-4.124398
3921,3.992739,3.398186,-3.912393
3922,4.292807,3.335355,-3.580451
3923,4.572398,3.301294,-3.338795
3924,4.845348,3.247598,-3.073353
3925,5.083717,3.139414,-2.743299
3926,5.276331,2.971158,-2.368703
3927,5.454581,2.762624,-1.983076
3928,5.632536,2.528419,-1.602021
3929,5.807384,2.271260,-1.232924
3930,5.973909,1.982836,-0.871184
3931,6.402663,1.880089,-0.630253
3932,6.134042,1.661711,-0.514444
3933,6.680793,2.088595,-0.753618
3934,6.969317,2.283043,-0.878987
3935,7.276265,2.465192,-1.014953
3936,-2.087533,-7.711124,0.428710
3937,-2.591361,-7.723369,0.440704
3938,-2.425290,-7.291777,0.360813
3939,-2.738824,-8.097408,0.493466
3940,-2.810117,-8.418164,0.525996
3941,-3.023961,-8.304918,0.533820
3942,-3.292765,-8.221913,0.552234
3943,-3.593023,-8.185932,0.586191
3944,-3.908639,-8.186471,0.636523
3945,-4.222849,-8.207495,0.699145
3946,-4.538333,-8.221923,0.768112
3947,-4.859878,-8.226128,0.840808
3948,-5.181369,-8.230860,0.918517
3949,-5.508221,-8.216778,0.998161
3950,-5.850117,-8.192577,1.079425
3951,-6.203102,-8.166095,1.157538
3952,-6.564517,-8.116006,1.221720
3953,-6.935942,-8.045569,1.266350
3954,-7.316980,-7.965620,1.288397
3955,-7.707808,-7.880712,1.287365
3956,-8.112250,-7.792220,1.258758
3957,-8.532743,-7.711430,1.197337
3958,-8.945696,-7.697297,1.133721
3959,-9.320084,-7.742748,1.090172
3960,-9.672418,-7.771903,1.045334
3961,-10.031977,-7.757994,0.981247
3962,-1.474189,-0.729343,-8.285696
3963,-1.710394,-0.622441,-7.698474
3964,-1.743382,-0.727682,-7.071060
3965,-1.486706,-1.050347,-6.416178
3966,-1.837489,-0.806091,-6.463735
3967,-1.177995,-1.317943,-6.395662
3968,-0.914384,-1.623606,-6.244881
3969,-0.687846,-1.912967,-6.446841
3970,-0.500241,-2.228493,-6.493488
3971,-0.324520,-2.524902,-6.545208
3972,-0.158549,-2.796616,-6.605547
3973,0.012403,-3.084365,-6.684338
3974,0.192519,-3.539187,-5.259159
3975,0.096422,-3.322272,-5.652171
3976,0.298960,-3.785201,-4.866162
3977,0.417193,-4.053900,-4.498906
3978,0.633991,-4.466338,-4.514536
3979,0.546929,-4.336402,-4.166002
3980,0.743412,-4.620151,-4.846114
3981,0.863530,-4.800212,-5.164479
3982,0.947898,-5.018549,-5.454470
3983,0.962199,-5.245438,-5.696061
3984,0.981726,-5.367459,-5.878832
3985,1.088181,-5.298252,-6.013638
3986,1.175069,-5.076804,-6.151282
3987,1.127334,-4.790045,-6.415966
3988,0.910818,-4.435565,-6.224102
3989,0.644161,-4.018176,-5.963391
3990,0.501651,-3.706348,-6.345935
3991,0.309475,-3.353314,-6.430257
3992,0.099195,-2.995853,-6.395449
3993,-0.074168,-2.690941,-6.419586
3994,-0.256307,-2.378989,-6.415004
3995,-0.453455,-2.057309,-6.382086
3996,-0.652276,-1.712698,-6.327146
3997,10.619049,0.532752,0.802731
3998,10.503803,0.603675,1.089827
3999,10.265719,0.566557,1.315765
4000,9.973600,0.422989,1.472270
4001,9.699244,0.189478,1.587512
4002,9.491862,-0.104480,1.694409
4003,9.317644,-0.383804,1.772070
4004,9.122302,-0.621075,1.805681
4005,8.906135,-0.849083,1.816502
4006,8.679465,-1.083341,1.813851
4007,8.451129,-1.328051,1.799657
4008,8.224877,-1.581599,1.775799
4009,8.001923,-1.845265,1.748064
4010,7.782687,-2.120965,1.722032
4011,7.566981,-2.406734,1.699069
4012,7.353876,-2.697177,1.677141
4013,7.141105,-2.987237,1.655290
4014,6.926241,-3.274259,1.633853
4015,6.708791,-3.557281,1.612653
4016,6.490011,-3.836543,1.590460
4017,6.271959,-4.112812,1.566964
4018,6.056715,-4.386671,1.541860
4019,5.844416,-4.658261,1.516664
4020,5.633386,-4.926770,1.495085
4021,5.423295,-5.190747,1.475895
4022,5.215341,-5.449034,1.453798
4023,5.011300,-5.700196,1.428037
4024,4.815874,-5.943013,1.401508
4025,4.644624,-6.194307,1.373737
4026,4.515852,-6.461967,1.346146
4027,4.448596,-6.738570,1.324539
4028,4.086908,-6.466867,1.290676
4029,10.450879,0.904842,0.433260
4030,10.300737,0.979055,0.702802
4031,10.041913,0.947194,0.923546
4032,9.743178,0.825884,1.086926
4033,9.450435,0.620377,1.216766
4034,9.226716,0.305988,1.374567
4035,9.131903,-0.024979,1.540758
4036,8.918443,-0.190698,1.561645
4037,8.682143,-0.392720,1.585334
4038,8.436707,-0.603628,1.594342
4039,8.191073,-0.834139,1.594049
4040,7.948766,-1.078861,1.583526
4041,7.710467,-1.337143,1.569527
4042,7.477947,-1.612680,1.560177
4043,7.251573,-1.902583,1.556551
4044,7.029448,-2.198404,1.553589
4045,6.809118,-2.493270,1.547452
4046,6.587566,-2.784065,1.539584
4047,6.363422,-3.069969,1.530663
4048,6.137886,-3.351207,1.518784
4049,5.913266,-3.629178,1.503312
4050,5.691798,-3.905394,1.485882
4051,5.474293,-4.180640,1.467749
4052,5.259089,-4.454459,1.450467
4053,5.044930,-4.725421,1.434096
4054,4.833133,-4.992956,1.414540
4055,4.626592,-5.258668,1.389944
4056,4.431026,-5.526409,1.362228
4057,4.256496,-5.806152,1.332783
4058,4.123686,-6.118696,1.303766
4059,3.688156,-5.731278,1.204977
4060,3.559636,-6.132440,1.169396
4061,3.746865,-6.549730,1.228343
4062,3.656961,-6.830381,1.196592
4063,3.567151,-7.241194,1.152145
4064,3.245069,-7.411515,1.043831
4065,3.153596,-7.707123,0.982558
4066,2.979113,-7.977867,0.870768
4067,2.809858,-8.231850,0.736868
4068,2.690666,-8.482466,0.588141
4069,2.631032,-8.702830,0.377430
4070,2.597099,-8.920441,0.113061
4071,2.533308,-9.140746,-0.125280
4072,2.478601,-9.269834,-0.159842
4073,2.436795,-9.022961,-0.094954
4074,2.471971,-8.959115,0.269498
4075,2.308891,-8.762234,0.446855
4076,2.152353,-8.685951,0.527023
4077,2.088964,-8.396122,0.388872
4078,1.931491,-7.955019,0.198699
4079,1.757327,-8.144671,0.439876
4080,1.610281,-8.376126,0.603837
4081,1.369964,-8.423423,0.654845
4082,1.038727,-8.524453,0.656534
4083,0.686295,-8.441678,0.585536
4084,0.351679,-8.395706,0.524251
4085,0.016796,-8.291413,0.475867
4086,-0.316644,-8.174012,0.467036
4087,-0.656126,-8.054908,0.479695
4088,-0.994672,-7.962307,0.479620
4089,-1.323806,-7.911617,0.468084
4090,-1.660948,-7.861372,0.453500
4091,-4.313213,0.524949,-10.422844
4092,-3.981768,0.533074,-10.217638
4093,-3.172835,0.386101,-9.664283
4094,-2.961505,0.403598,-10.030684
4095,-2.798118,0.385908,-10.227031
4096,-2.927813,0.451661,-10.400134
4097,-7.539423,-2.777927,-2.802490
4098,-7.133096,-2.894039,-2.521784
4099,-6.724557,-2.977277,-2.337675
4100,-6.641626,-2.666480,-2.860262
4101,-6.550484,-2.392792,-3.370420
4102,-6.462575,-2.140677,-3.872634
4103,-6.381561,-1.905050,-4.372491
4104,-6.314681,-1.690528,-4.864525
4105,-6.259668,-1.508087,-5.302265
4106,-6.155370,-1.352598,-5.603205
4107,-5.977000,-1.192486,-5.817445
4108,-5.812485,-1.030239,-6.060554
4109,-5.727446,-0.903512,-6.326984
4110,-5.480345,-0.839736,-6.172687
4111,-5.152285,-0.737904,-6.083133
4112,-4.777584,-0.619853,-6.062029
4113,-4.375546,-0.519602,-6.071762
4114,-3.945562,-0.454698,-6.091348
4115,-3.506086,-0.437101,-6.111447
4116,-3.099587,-0.303088,-6.641280
4117,-3.080513,-0.471375,-6.115477
4118,-3.197074,-0.156727,-7.100073
4119,-3.105581,-0.029180,-7.707942
4120,-3.343681,0.125797,-8.188697
4121,-3.351568,0.216857,-8.642763
4122,-3.402526,0.326334,-9.193328
4123,-10.119457,-7.351060,0.659028
4124,-10.205740,-7.028141,0.341284
4125,-9.888188,-6.626405,0.103426
4126,-10.144110,-6.766364,0.098054
4127,-9.674742,-6.368815,0.021977
4128,-9.470486,-6.107712,-0.028492
4129,-9.276776,-5.816263,-0.091516
4130,-9.066271,-5.521421,-0.153515
4131,-8.823161,-5.218492,-0.233510
4132,-8.521615,-4.863544,-0.381057
4133,-8.108577,-4.736703,-0.349854
4134,-7.884724,-4.459090,-0.553536
4135,-7.620628,-4.044705,-0.942236
4136,-7.496898,-4.523661,-0.465632
4137,-7.650467,-3.549924,-1.543141
4138,-7.735276,-3.125157,-2.195179
4139,7.407687,2.091715,-0.548911
4140,7.548364,1.695035,-0.115235
4141,7.697248,1.269725,0.296713
4142,7.857037,0.818458,0.681076
4143,8.029921,0.349854,1.028537
4144,8.494201,0.074992,1.309959
4145,8.221052,-0.126090,1.333286
4146,8.791328,0.314109,1.247870
4147,-2.902242,0.171310,-8.843863
4148,-1.786281,-0.455969,-8.338071
4149,-2.101910,-0.361503,-7.781057
4150,-2.132269,-0.486687,-7.137182
4151,-2.218954,-0.590480,-6.536198
4152,-1.930460,-0.920122,-5.849779
4153,-2.314127,-0.708563,-5.975826
4154,-1.549444,-1.160548,-5.795895
4155,-1.215238,-1.418950,-5.770721
4156,-0.934042,-1.715118,-5.613443
4157,-0.681106,-1.983590,-5.846208
4158,-0.481953,-2.289898,-5.940826
4159,-0.310942,-2.580261,-6.033373
4160,-0.158054,-2.830423,-6.164978
4161,-0.031923,-3.115342,-5.317153
4162,-0.111706,-2.942024,-5.745482
4163,0.015962,-3.144188,-6.010737
4164,0.069388,-3.339813,-4.889944
4165,0.187925,-3.607081,-4.479589
4166,0.326957,-3.910765,-4.102845
4167,0.482817,-4.233802,-3.776618
4168,0.668716,-4.595350,-3.869014
4169,0.633513,-4.536464,-3.525063
4170,0.747426,-4.718413,-4.155992
4171,0.854696,-4.867671,-4.451737
4172,0.965098,-5.030120,-4.748348
4173,1.033056,-5.230795,-5.009633
4174,1.031315,-5.443188,-5.227929
4175,1.041465,-5.544698,-5.383580
4176,1.130200,-5.426622,-5.474706
4177,1.183392,-5.141354,-5.546860
4178,1.068209,-4.771880,-5.707218
4179,0.849892,-4.418693,-5.675700
4180,0.691667,-4.178919,-5.395573
4181,0.383430,-3.550702,-5.879419
4182,0.193609,-3.215846,-5.850455
4183,0.035581,-2.934637,-5.859594
4184,-0.127620,-2.647519,-5.872181
4185,-0.307328,-2.345430,-5.864289
4186,-0.489420,-2.030927,-5.843791
4187,-0.653610,-1.697413,-5.793031
4188,-0.826860,-1.284675,-6.170502
4189,-0.749543,-1.411484,-5.646570
4190,-0.950141,-0.794975,-6.161070
4191,-0.838412,-0.981784,-5.623436
4192,-0.929077,-0.346990,-5.837191
4193,-0.815319,-0.571040,-5.288658
4194,-0.983513,0.050505,-6.183500
4195,-1.031825,0.215427,-6.584865
4196,-1.064606,0.431674,-7.029648
4197,-1.083768,0.603355,-7.509153
4198,-1.089334,0.728897,-8.025563
4199,-1.076625,0.820116,-8.563177
4200,0.474726,-3.762871,-5.462775
4201,0.553497,-3.952414,-5.047913
4202,-2.666848,0.124752,-8.950373
4203,-2.436487,-0.005935,-8.808401
4204,-2.211748,-0.193796,-8.371010
4205,-0.885638,1.218885,-8.332954
4206,-0.643839,1.580993,-8.121773
4207,-0.372103,1.895014,-7.933076
4208,-0.113001,2.142756,-7.640932
4209,0.210597,2.412882,-7.675616
4210,0.535806,2.633097,-7.631835
4211,0.741336,2.769471,-7.511631
4212,0.715057,2.753285,-7.190498
4213,0.721217,2.726043,-6.685155
4214,0.764183,2.679726,-6.155574
4215,0.845593,2.615975,-5.625448
4216,0.971550,2.542968,-5.107190
4217,1.134906,2.460553,-4.610702
4218,1.323965,2.361055,-4.141006
4219,1.529132,2.241941,-3.696267
4220,1.745177,2.108526,-3.273772
4221,2.253113,2.262987,-3.036292
4222,1.972847,1.964891,-2.875973
4223,2.549628,2.539393,-3.214431
4224,2.837305,2.775236,-3.383595
4225,3.086377,3.141856,-3.901138
4226,3.130141,2.948996,-3.490720
4227,3.495709,3.129355,-3.618884
4228,3.806215,3.083716,-3.353531
4229,4.083547,3.046165,-3.127577
4230,4.353410,3.009658,-2.915404
4231,4.609828,2.950718,-2.677863
4232,4.836724,2.867292,-2.424358
4233,5.011222,2.725998,-2.130096
4234,5.171266,2.517584,-1.776116
4235,5.353950,2.284688,-1.415379
4236,5.535744,2.031907,-1.071797
4237,5.706522,1.749430,-0.737286
4238,5.873631,1.436831,-0.406410
4239,6.292979,1.312702,-0.167061
4240,6.047164,1.099267,-0.083842
4241,6.551782,1.517647,-0.252872
4242,6.824995,1.719283,-0.347060
4243,7.110426,1.913686,-0.447379
4244,-2.992176,-7.835156,0.477124
4245,-3.293630,-7.638353,0.468121
4246,-3.633508,-7.539041,0.483935
4247,-3.973316,-7.542767,0.531122
4248,-4.298468,-7.576828,0.595398
4249,-4.673651,-7.531644,0.658660
4250,-5.033819,-7.635382,0.763461
4251,-5.305470,-7.729070,0.851608
4252,-5.595316,-7.633047,0.898947
4253,-5.934244,-7.613448,0.974871
4254,-6.282683,-7.586965,1.044315
4255,-6.643213,-7.541234,1.100167
4256,-7.014058,-7.471485,1.131647
4257,-7.401078,-7.384090,1.135775
4258,-7.797876,-7.309121,1.120623
4259,-8.203967,-7.216775,1.060106
4260,-8.683694,-7.045397,0.891380
4261,-9.159933,-7.153317,0.811571
4262,-9.490667,-7.270734,0.779825
4263,-9.798716,-7.340673,0.735923
4264,3.280096,-6.409889,1.081553
4265,3.109399,-6.700247,1.001751
4266,2.931754,-6.984128,0.904501
4267,2.757936,-7.256733,0.787427
4268,2.609160,-7.532774,0.639800
4269,2.478014,-7.792565,0.458054
4270,2.406723,-8.052770,0.280078
4271,2.419137,-8.307087,0.155390
4272,2.388623,-8.401724,-0.225168
4273,2.426102,-8.724743,-0.378929
4274,2.351860,-8.802921,-0.575388
4275,2.293511,-8.760383,-0.538619
4276,2.264062,-8.472381,-0.273270
4277,2.243189,-8.376825,0.150347
4278,2.042314,-7.895357,-0.149719
4279,1.809950,-7.384379,-0.386056
4280,1.713592,-7.511018,0.030174
4281,1.572495,-7.772974,0.324847
4282,1.476569,-8.068515,0.511632
4283,1.264389,-7.950536,0.491561
4284,0.984415,-7.870539,0.465622
4285,0.671431,-7.816550,0.426895
4286,0.346604,-7.763543,0.375924
4287,0.013372,-7.675024,0.342034
4288,-0.327818,-7.554233,0.350654
4289,-0.672048,-7.433021,0.367960
4290,-1.010531,-7.345210,0.369516
4291,-1.339301,-7.297899,0.362243
4292,-1.672291,-7.246070,0.348332
4293,-1.996520,-7.104488,0.315417
4294,-2.280637,-6.859090,0.256233
4295,-2.521608,-6.511557,0.159584
4296,-2.720732,-6.890620,0.274664
4297,-2.891406,-7.353714,0.388568
4298,-7.191356,-3.258233,-1.930667
4299,-6.763529,-3.340884,-1.807137
4300,-6.352959,-3.060596,-2.176952
4301,-6.397958,-3.396361,-1.733365
4302,-6.268112,-2.742841,-2.644854
4303,-6.180398,-2.448121,-3.117129
4304,-6.096558,-2.166022,-3.597356
4305,-6.022313,-1.897646,-4.091683
4306,-5.979159,-1.659863,-4.586898
4307,-5.974004,-1.468717,-5.046447
4308,-6.010330,-1.372543,-5.337228
4309,-5.774721,-1.278693,-5.316962
4310,-5.492511,-1.030635,-5.655967
4311,-5.039417,-0.923909,-5.486777
4312,-4.651681,-0.807138,-5.487989
4313,-4.264181,-0.717517,-5.513660
4314,-3.853182,-0.660147,-5.545106
4315,-3.441306,-0.635682,-5.592426
4316,-3.045182,-0.655473,-5.619291
4317,-2.686066,-0.557582,-6.081563
4318,-2.697959,-0.704479,-5.638765
4319,-2.636644,-0.416409,-6.614547
4320,-2.649497,-0.249945,-7.265530
4321,-2.526355,-0.141923,-7.914718
4322,-2.808648,0.044295,-8.377735
4323,7.252590,1.510562,-0.033068
4324,7.400824,1.077394,0.359517
4325,7.561921,0.619681,0.724104
4326,7.744553,0.144161,1.054905
4327,7.954792,-0.342305,1.346038
4328,-0.919501,1.099287,-7.794597
4329,-0.694863,1.450156,-7.593307
4330,-0.441333,1.765044,-7.402991
4331,-0.182760,2.023507,-7.109464
4332,0.125228,2.323977,-7.168586
4333,0.422127,2.553339,-7.148576
4334,0.408169,2.492336,-6.638954
4335,0.439088,2.416825,-6.103118
4336,0.517979,2.328193,-5.553931
4337,0.649158,2.236364,-5.011229
4338,0.824735,2.142936,-4.495222
4339,1.027304,2.038194,-4.013479
4340,1.244812,1.919562,-3.561391
4341,1.474580,1.790328,-3.135343
4342,1.715882,1.650585,-2.734079
4343,1.965433,1.499990,-2.352403
4344,2.213764,1.813931,-2.502767
4345,2.474091,2.117836,-2.677393
4346,2.740299,2.402488,-2.876679
4347,2.984260,2.655569,-3.092971
4348,3.109938,2.809954,-3.256665
4349,3.352231,2.847570,-3.182969
4350,3.623891,2.788793,-2.936090
4351,3.886720,2.742358,-2.723275
4352,4.158042,2.692226,-2.508009
4353,4.467387,2.625211,-2.257296
4354,4.730352,2.690007,-2.213486
4355,4.748655,2.512750,-1.964488
4356,4.885492,2.265226,-1.590345
4357,5.087178,2.030201,-1.240360
4358,5.276703,1.787741,-0.923629
4359,5.447594,1.516242,-0.616873
4360,5.617327,1.205258,-0.305130
4361,5.806459,0.865836,0.005023
4362,6.210028,0.752116,0.209664
4363,6.004911,0.540177,0.281205
4364,6.445862,0.931554,0.164479
4365,6.699510,1.123326,0.109120
4366,6.968318,1.315805,0.043520
4367,-9.943803,-6.984170,0.400773
4368,-9.687828,-6.956600,0.487416
4369,-9.481670,-6.768216,0.439588
4370,-9.138672,-6.538754,0.449612
4371,-8.943854,-6.133656,0.306564
4372,-8.751017,-5.835458,0.218758
4373,-8.521674,-5.570375,0.142308
4374,-8.267714,-5.304941,0.041154
4375,-8.016606,-5.075048,-0.065392
4376,-7.764169,-4.855119,-0.199804
4377,-7.438806,-4.923854,-0.133658
4378,-7.146542,-4.571796,-0.432948
4379,-7.133819,-4.981203,-0.104066
4380,-7.153929,-4.137481,-0.841647
4381,-7.173955,-3.684235,-1.352195
4382,-2.403904,-0.881182,-5.396485
4383,-1.996302,-1.101567,-5.218081
4384,-1.598321,-1.324767,-5.161061
4385,-1.245601,-1.573146,-5.121600
4386,-0.962378,-1.829662,-5.026570
4387,-0.667103,-2.113870,-5.159160
4388,-0.437220,-2.408012,-5.382846
4389,-0.260808,-2.695010,-5.535908
4390,-0.178542,-2.873658,-5.047094
4391,-0.071259,-3.116169,-4.553089
4392,0.066970,-3.429368,-4.061288
4393,0.244147,-3.794954,-3.646968
4394,0.439451,-4.170256,-3.326532
4395,0.627291,-4.529946,-3.085908
4396,0.798300,-4.865958,-2.947138
4397,0.767665,-4.804132,-3.404938
4398,0.954150,-5.129510,-3.979390
4399,0.809559,-4.873421,-3.773355
4400,1.061418,-5.258342,-4.359825
4401,1.120391,-5.421109,-4.592263
4402,1.105310,-5.632653,-4.756092
4403,1.107191,-5.755859,-4.867924
4404,1.186844,-5.616451,-4.908270
4405,1.205816,-5.256936,-4.938726
4406,1.082294,-4.878018,-5.021474
4407,0.866311,-4.506843,-5.129388
4408,0.708135,-4.248295,-5.050521
4409,0.677293,-4.224886,-4.630384
4410,0.412686,-3.716473,-4.673148
4411,0.494313,-3.931266,-4.108849
4412,0.335650,-3.532067,-5.121750
4413,0.289349,-3.419569,-5.480999
4414,0.160065,-3.193132,-5.383287
4415,0.007608,-2.925338,-5.345133
4416,-0.187760,-2.598133,-5.254646
4417,-0.378690,-2.244173,-5.316115
4418,-0.530586,-1.928286,-5.328956
4419,-0.648114,-1.650124,-5.373724
4420,-0.713448,-1.379602,-5.244962
4421,-0.741311,-1.071390,-5.087123
4422,-0.714370,-0.777303,-4.859495
4423,-0.740254,-0.253115,-5.034409
4424,-0.651862,-0.484159,-4.645319
4425,-0.816518,-0.001633,-5.444887
4426,-0.870466,0.277676,-5.868157
4427,-0.902672,0.543629,-6.301947
4428,-0.923391,0.764607,-6.772005
4429,-0.930628,0.951382,-7.271616
4430,1.330314,-7.491897,0.251922
4431,1.022461,-7.308772,0.224164
4432,0.685833,-7.223881,0.216752
4433,0.349965,-7.163801,0.196560
4434,0.008500,-7.067814,0.189898
4435,-0.337158,-6.940583,0.202012
4436,-0.680014,-6.819392,0.210820
4437,-1.023586,-6.723572,0.206054
4438,-1.363965,-6.679215,0.202228
4439,-1.682479,-6.659132,0.198518
4440,-1.970255,-6.602703,0.181032
4441,-2.204278,-6.509843,0.153775
4442,-2.368993,-6.227177,0.064177
4443,-2.481019,-5.801322,-0.090846
4444,-2.737276,-6.059601,0.013539
4445,-2.986741,-6.391357,0.136420
4446,-3.255993,-6.942597,0.310280
4447,7.693754,-0.576310,1.349842
4448,7.436177,-0.828885,1.349262
4449,7.186860,-1.107468,1.356722
4450,6.948290,-1.405371,1.374659
4451,6.716283,-1.708431,1.394431
4452,6.487068,-2.008846,1.407385
4453,6.258378,-2.303899,1.412098
4454,6.027720,-2.592560,1.412982
4455,5.794585,-2.874854,1.411236
4456,5.561587,-3.153087,1.405145
4457,5.332104,-3.430806,1.394889
4458,5.107585,-3.709945,1.383059
4459,4.886551,-3.989902,1.370572
4460,4.667026,-4.268663,1.356051
4461,4.449712,-4.545372,1.336516
4462,4.237459,-4.822278,1.310180
4463,4.035484,-5.104835,1.278273
4464,3.850356,-5.402397,1.242779
4465,-6.665359,-3.775949,-1.272093
4466,-6.365617,-3.611748,-1.472322
4467,-6.077722,-3.499200,-1.604695
4468,-6.190274,-3.783392,-1.286141
4469,-5.995565,-3.180495,-1.983155
4470,-5.897867,-2.851075,-2.406566
4471,-5.802285,-2.531925,-2.851008
4472,-5.714158,-2.217854,-3.318116
4473,-5.629608,-1.909380,-3.814249
4474,-5.607738,-1.622251,-4.363987
4475,-5.697305,-1.438931,-4.836591
4476,-5.277241,-1.287671,-4.849541
4477,-4.784674,-1.107921,-4.892227
4478,-4.474994,-0.971437,-5.016355
4479,-4.124286,-0.940634,-4.962626
4480,-3.728540,-0.879642,-5.024466
4481,-3.337659,-0.854172,-5.090884
4482,-2.889894,-0.898588,-5.094504
4483,-8.602864,-6.474594,0.637777
4484,-8.448922,-6.166894,0.521992
4485,-8.307481,-5.913963,0.420011
4486,-7.967413,-5.749502,0.381863
4487,-7.793682,-5.389599,0.185538
4488,-7.432154,-5.275946,0.123392
4489,-7.132554,-5.391246,0.184262
4490,-6.814871,-5.496432,0.219328
4491,-6.821264,-5.068248,-0.069025
4492,-6.811645,-4.660962,-0.387937
4493,-6.771841,-4.256156,-0.755035
4494,7.116198,0.880920,0.412907
4495,7.277087,0.414866,0.757954
4496,7.466770,-0.075544,1.073194
4497,-0.724617,1.290378,-7.064662
4498,-0.482746,1.609235,-6.866005
4499,-0.209819,1.885006,-6.556246
4500,0.098194,2.228604,-6.640547
4501,2.015852,-7.876233,-0.731186
4502,1.816977,-7.324641,-0.885937
4503,1.588894,-6.859977,-0.617450
4504,1.621192,-6.838247,-1.064813
4505,1.419576,-7.028672,-0.132886
4506,0.184172,-3.271086,-4.926080
4507,0.004992,-2.975730,-4.815609
4508,-0.184736,-2.649350,-4.608477
4509,-0.344882,-2.294638,-4.771919
4510,-0.476948,-1.966969,-4.829512
4511,-0.602213,-1.631399,-4.948909
4512,-0.674553,-1.371437,-4.960628
4513,-0.651686,-1.255432,-4.756558
4514,-0.612889,-1.003626,-4.479215
4515,-0.505885,-0.648980,-4.159017
4516,-0.417345,-0.186922,-4.113412
4517,-0.558030,-0.227090,-4.455201
4518,-0.619892,0.011370,-4.786778
4519,-0.678241,0.292054,-5.179694
4520,-0.709752,0.583019,-5.593468
4521,-0.723760,0.860144,-6.049305
4522,-0.730866,1.097200,-6.546100
4523,7.181447,-0.315818,1.083596
4524,6.904407,-0.604675,1.109533
4525,6.653310,-0.924240,1.153941
4526,6.413128,-1.236973,1.197217
4527,6.176035,-1.541429,1.231752
4528,5.939471,-1.838865,1.251932
4529,5.701869,-2.128958,1.261749
4530,5.461117,-2.410727,1.267959
4531,5.218577,-2.686923,1.271182
4532,4.979147,-2.963955,1.269223
4533,4.746288,-3.246376,1.263159
4534,4.518879,-3.532983,1.254540
4535,4.293695,-3.819572,1.241260
4536,4.070173,-4.104007,1.219953
4537,3.850703,-4.388491,1.189390
4538,3.639490,-4.677978,1.150318
4539,3.440441,-4.978224,1.103912
4540,3.253741,-5.295663,1.050080
4541,3.076547,-5.632660,0.985579
4542,2.885104,-5.953061,0.899205
4543,2.694216,-6.242155,0.790252
4544,2.530854,-6.528241,0.666642
4545,2.383863,-6.815614,0.524685
4546,2.258221,-7.095005,0.351804
4547,2.173919,-7.361390,0.152840
4548,2.154519,-7.619581,-0.061064
4549,2.230417,-7.939762,-0.217333
4550,2.201940,-7.910633,-0.684857
4551,2.298050,-8.351956,-0.731417
4552,2.217460,-8.377735,-0.944532
4553,2.137584,-8.286130,-0.888030
4554,-3.720831,-6.856532,0.323204
4555,-4.068443,-6.904324,0.379170
4556,-4.396468,-6.949022,0.444380
4557,-4.756171,-6.823407,0.469665
4558,-5.049185,-7.034576,0.598003
4559,-5.387321,-7.140320,0.707794
4560,-5.719702,-7.161567,0.797007
4561,-6.016700,-7.064024,0.829257
4562,-6.357926,-7.030373,0.886917
4563,-6.709901,-6.986833,0.932338
4564,-7.084144,-6.905690,0.947103
4565,-7.530447,-6.755926,0.909708
4566,-7.921138,-6.852725,0.948867
4567,-8.248677,-6.701609,0.842664
4568,3.188227,2.568524,-2.838262
4569,3.427054,2.488538,-2.588861
4570,3.690805,2.416303,-2.349889
4571,3.983827,2.337334,-2.100816
4572,4.358777,2.220521,-1.779488
4573,1.021065,-6.747752,-0.082109
4574,0.681628,-6.651661,-0.041398
4575,0.349856,-6.584882,-0.018486
4576,0.010539,-6.479311,-0.007666
4577,-0.330582,-6.347475,-0.001972
4578,-0.680690,-6.209787,-0.007300
4579,-1.114768,-6.010472,-0.052822
4580,-1.529656,-6.083135,0.002554
4581,-1.841246,-6.116884,0.020903
4582,-2.121393,-6.161550,0.038576
4583,-2.185865,-5.632208,-0.164822
4584,-2.255425,-5.033661,-0.452576
4585,-2.675475,-5.160895,-0.377462
4586,-2.962754,-5.550444,-0.185503
4587,-3.224181,-5.837985,-0.056614
4588,-3.532333,-6.165054,0.080657
4589,-3.940852,-6.234470,0.140407
4590,-4.213715,-6.405750,0.235496
4591,-4.510745,-6.339333,0.250275
4592,-4.889984,-6.220724,0.261844
4593,-5.167303,-6.467892,0.415217
4594,-5.460829,-6.540728,0.506612
4595,-5.749447,-6.689909,0.634037
4596,-6.093994,-6.544197,0.646556
4597,-6.421815,-6.508159,0.692572
4598,-6.761567,-6.457029,0.723854
4599,-7.132918,-6.348499,0.713733
4600,-7.529411,-6.120748,0.615411
4601,-7.992549,-6.326779,0.694898
4602,-8.281588,-6.404047,0.698416
4603,-6.323038,-4.095283,-0.957085
4604,-5.970821,-4.351120,-0.751263
4605,-5.859259,-4.014678,-1.065360
4606,-5.748550,-3.687426,-1.392765
4607,-5.637300,-3.351537,-1.748711
4608,-5.525158,-3.005584,-2.138749
4609,-5.418693,-2.660328,-2.560099
4610,-5.322278,-2.320176,-3.010653
4611,-5.219793,-1.991385,-3.477718
4612,-5.088839,-1.650905,-4.009006
4613,4.608551,1.963126,-1.368895
4614,4.841598,1.749451,-1.051483
4615,5.041900,1.537355,-0.776639
4616,5.202171,1.277355,-0.500516
4617,5.368159,0.957067,-0.199992
4618,5.567654,0.611185,0.102000
4619,5.796254,0.266815,0.382597
4620,6.238787,0.272598,0.509023
4621,6.069774,-0.074072,0.643320
4622,6.281580,0.515612,0.382226
4623,6.535055,0.485812,0.475427
4624,6.841822,0.687774,0.452904
4625,0.118332,2.114791,-6.076509
4626,0.190972,1.981420,-5.487400
4627,0.339322,1.872057,-4.906013
4628,0.545754,1.786915,-4.368448
4629,0.766781,1.686015,-3.877994
4630,0.996372,1.574227,-3.423448
4631,1.235908,1.454460,-2.999905
4632,1.484084,1.325548,-2.602268
4633,1.735581,1.181574,-2.223175
4634,1.986065,1.009642,-1.855248
4635,2.219727,1.333631,-1.982822
4636,2.465230,1.658082,-2.146300
4637,2.714851,1.976575,-2.343376
4638,2.960048,2.281779,-2.572684
4639,-7.488250,-5.644617,0.356217
4640,-7.142618,-5.836874,0.452902
4641,-6.796596,-5.957862,0.483235
4642,-6.473230,-6.026192,0.470748
4643,-6.508882,-5.586576,0.231804
4644,-6.517071,-5.186211,-0.024181
4645,-6.487078,-4.812457,-0.304791
4646,-6.419927,-4.452048,-0.613453
4647,-4.699416,-1.404471,-4.273635
4648,-4.314677,-1.235706,-4.435231
4649,-3.871195,-1.163936,-4.462021
4650,-3.555560,-1.069734,-4.618867
4651,-3.217320,-1.101177,-4.586560
4652,-2.890127,-1.148666,-4.550900
4653,-2.489825,-1.143714,-4.724892
4654,-2.034292,-1.336969,-4.599757
4655,-1.639172,-1.547129,-4.522857
4656,-1.207724,-1.867132,-4.378082
4657,-0.794604,-2.132482,-4.525998
4658,-0.523250,-2.417767,-4.543127
4659,-0.353356,-2.609205,-4.807811
4660,6.985127,0.200203,0.779410
4661,6.615616,-0.063299,0.792816
4662,6.362665,-0.468330,0.902839
4663,6.117528,-0.794467,0.969360
4664,5.875384,-1.098539,1.021307
4665,5.631509,-1.393769,1.057598
4666,5.385263,-1.682185,1.078685
4667,5.136300,-1.961692,1.092106
4668,4.884836,-2.233558,1.101859
4669,4.634832,-2.506569,1.106578
4670,4.392619,-2.790234,1.106206
4671,4.159114,-3.083805,1.101364
4672,3.929223,-3.378468,1.088634
4673,3.699257,-3.668620,1.063142
4674,3.470535,-3.957018,1.024484
4675,3.248546,-4.250305,0.975671
4676,3.037329,-4.550735,0.916922
4677,2.834091,-4.857803,0.842849
4678,2.638050,-5.174384,0.749712
4679,2.454384,-5.494637,0.638157
4680,2.289160,-5.804443,0.507859
4681,2.147287,-6.102208,0.358863
4682,2.030283,-6.393984,0.192388
4683,1.943097,-6.676261,0.003843
4684,1.907112,-6.954521,-0.191267
4685,1.947885,-7.231703,-0.315933
4686,2.005104,-7.431735,-0.611190
4687,2.047926,-7.490496,-0.985809
4688,2.149120,-7.837671,-1.130692
4689,2.088269,-7.951572,-1.332900
4690,1.984542,-7.895301,-1.331152
4691,1.888943,-7.616358,-1.317896
4692,1.766480,-7.210030,-1.396652
4693,1.595339,-6.787507,-1.533905
4694,1.415074,-6.376537,-1.712824
4695,1.433167,-6.396193,-1.288743
4696,1.400402,-6.364011,-0.916496
4697,1.273595,-6.436882,-0.507827
4698,0.958879,-6.200469,-0.437403
4699,0.653326,-6.107051,-0.354561
4700,0.333215,-6.029313,-0.297307
4701,0.009401,-5.932080,-0.263090
4702,-0.310265,-5.797190,-0.260704
4703,-0.668079,-5.607233,-0.295197
4704,-1.133923,-5.241954,-0.428603
4705,-1.543986,-5.473016,-0.262419
4706,-1.876127,-5.545487,-0.210377
4707,-0.494798,1.419067,-6.319473
4708,-0.198315,1.709584,-5.969910
4709,0.231200,-3.416287,-4.410799
4710,0.024181,-3.077164,-4.242200
4711,-0.166344,-2.667175,-4.011296
4712,-0.333040,-2.237996,-4.228144
4713,-0.454999,-1.860486,-4.345542
4714,-0.557992,-1.528308,-4.517165
4715,-0.498751,-1.290822,-4.114323
4716,-0.307018,-0.980916,-3.570969
4717,-0.253112,-0.348023,-3.664232
4718,-0.169131,0.128235,-3.785119
4719,-0.397878,0.211433,-4.358516
4720,-0.475562,0.551408,-4.847177
4721,-0.503346,0.859679,-5.303814
4722,-0.492255,1.174044,-5.779690
4723,-0.261158,-2.888140,-4.119217
4724,-0.070269,-3.334038,-3.453111
4725,0.182542,-3.765581,-3.129557
4726,0.405142,-4.160093,-2.833662
4727,0.625349,-4.565089,-2.575630
4728,0.830592,-4.949682,-2.434453
4729,0.988491,-5.283553,-2.421927
4730,0.927639,-5.147547,-2.835742
4731,0.919299,-5.125163,-3.367983
4732,1.066816,-5.506520,-3.593796
4733,1.126164,-5.520528,-4.063644
4734,1.166125,-5.513138,-4.322701
4735,1.162257,-5.700286,-4.328285
4736,1.149756,-5.908074,-4.356860
4737,1.272537,-5.925989,-4.273952
4738,1.262842,-5.445929,-4.251713
4739,1.070662,-4.934174,-4.410489
4740,0.898451,-4.612682,-4.596470
4741,-6.085152,-4.690554,-0.455657
4742,-5.768950,-4.992730,-0.272848
4743,-5.622048,-4.629926,-0.557424
4744,-5.517152,-4.250975,-0.869425
4745,-5.406964,-3.909131,-1.174200
4746,-5.279005,-3.570078,-1.494990
4747,-5.150226,-3.207277,-1.856685
4748,-5.034020,-2.831585,-2.261641
4749,-4.935168,-2.463345,-2.700938
4750,-4.852817,-2.132554,-3.131589
4751,-4.713522,-1.874981,-3.475266
4752,-4.457210,-1.682911,-3.703919
4753,-4.141186,-1.545595,-3.842809
4754,-3.800890,-1.454560,-3.937185
4755,-3.426339,-1.349271,-4.104242
4756,-3.029369,-1.340101,-4.152882
4757,-2.737691,-1.316169,-4.260069
4758,-2.444316,-1.424395,-4.162751
4759,-2.093561,-1.581973,-4.044262
4760,-1.715853,-1.808958,-3.889969
4761,-1.283818,-2.209045,-3.532568
4762,-0.895109,-2.260013,-3.930957
4763,-0.577369,-2.532320,-3.967474
4764,3.208486,2.171693,-2.286691
4765,3.479692,2.065345,-2.009961
4766,3.779365,1.947065,-1.725912
4767,4.084068,1.788709,-1.413534
4768,4.368565,1.603199,-1.102016
4769,4.635354,1.423212,-0.828393
4770,4.863427,1.282271,-0.621526
4771,4.964423,0.990011,-0.358624
4772,5.174631,0.705190,-0.083423
4773,5.308800,0.364870,0.178507
4774,5.555224,-0.013064,0.467314
4775,5.830078,-0.389272,0.725953
4776,-1.928133,-4.998149,-0.485984
4777,-2.592421,-4.484133,-0.763778
4778,-2.146800,-4.439316,-0.816655
4779,-3.058118,-4.584757,-0.688322
4780,-3.214718,-5.069036,-0.411100
4781,-3.427784,-5.352132,-0.266276
4782,-3.687816,-5.502166,-0.189025
4783,-3.990827,-5.607165,-0.120491
4784,-4.275209,-5.850341,0.018020
4785,-4.646651,-5.735913,0.005537
4786,-5.049902,-5.627302,0.003580
4787,-5.321440,-5.928137,0.200876
4788,-5.592758,-6.044149,0.310494
4789,-5.846808,-6.196574,0.439708
4790,-6.171471,-6.071016,0.440949
4791,5.583692,-0.681893,0.786348
4792,5.332689,-0.968968,0.832613
4793,5.076840,-1.252193,0.864591
4794,4.818348,-1.527746,0.886185
4795,4.557540,-1.794575,0.900807
4796,4.296765,-2.062113,0.908339
4797,4.044976,-2.344943,0.910612
4798,3.806734,-2.645179,0.908820
4799,3.574246,-2.948563,0.897246
4800,3.338625,-3.242315,0.866426
4801,3.098762,-3.529123,0.814243
4802,2.862492,-3.821816,0.748630
4803,2.640029,-4.125610,0.675222
4804,2.429926,-4.431880,0.583760
4805,2.228126,-4.739438,0.461540
4806,2.054024,-5.058808,0.326438
4807,1.905792,-5.375931,0.165099
4808,1.791050,-5.691957,-0.016256
4809,1.717099,-6.000036,-0.197546
4810,1.673711,-6.284800,-0.384410
4811,1.678792,-6.562005,-0.580379
4812,1.777882,-6.913371,-0.697562
4813,1.826892,-7.014189,-1.069001
4814,1.940445,-7.211450,-1.336314
4815,2.003314,-7.424123,-1.573849
4816,1.942186,-7.549785,-1.801429
4817,1.877259,-7.629368,-1.722343
4818,1.813928,-7.391164,-1.790123
4819,1.714245,-7.074171,-1.869802
4820,1.553797,-6.717893,-2.025757
4821,1.377261,-6.334538,-2.192349
4822,1.225002,-5.958033,-2.322282
4823,1.268396,-6.009929,-1.881831
4824,1.283003,-6.020625,-1.527306
4825,1.277921,-6.022098,-1.222764
4826,1.142031,-5.905796,-0.968642
4827,0.871671,-5.696610,-0.843605
4828,0.550314,-5.530451,-0.745576
4829,0.236830,-5.539314,-0.571407
4830,-0.023152,-5.521766,-0.489005
4831,-0.261097,-5.330172,-0.545846
4832,-0.585773,-5.094244,-0.618035
4833,-0.921576,-4.769709,-0.759440
4834,-1.621314,-4.993384,-0.509974
4835,-1.432932,-4.713389,-0.706563
4836,-1.213815,-4.386938,-0.973573
4837,-0.153281,1.469418,-5.333338
4838,0.087938,1.457961,-4.729933
4839,0.314972,1.396274,-4.210734
4840,0.545091,1.307019,-3.724288
4841,0.782724,1.207846,-3.273323
4842,1.030149,1.102155,-2.857818
4843,1.283241,0.989503,-2.472102
4844,1.532703,0.860973,-2.109739
4845,1.771249,0.700028,-1.764889
4846,2.002943,0.493673,-1.427022
4847,2.238926,0.801197,-1.495054
4848,2.481026,1.143107,-1.623238
4849,2.726570,1.493049,-1.801699
4850,2.972194,1.837993,-2.023737
4851,-6.234316,-5.660838,0.230441
4852,-6.246559,-5.318355,0.024299
4853,-6.187897,-5.010561,-0.196842
4854,0.278986,-3.578172,-3.799961
4855,-0.386968,-1.684838,-3.846563
4856,-0.229764,-1.539590,-3.298224
4857,0.079246,0.041864,-3.259083
4858,0.002377,-0.447890,-3.108282
4859,0.197605,0.488964,-3.409854
4860,-0.043134,0.571864,-3.919349
4861,-0.231792,0.691355,-4.413337
4862,-0.311265,0.820907,-4.712002
4863,-0.281123,1.039455,-4.943144
4864,5.302728,-0.285715,0.532019
4865,5.044952,-0.560327,0.583685
4866,4.781382,-0.835520,0.622816
4867,4.523630,-1.107858,0.655685
4868,4.252494,-1.359526,0.669751
4869,3.964904,-1.619248,0.670997
4870,3.696585,-1.913214,0.675246
4871,3.456459,-2.222985,0.676494
4872,3.227673,-2.534540,0.667294
4873,2.989293,-2.828442,0.632320
4874,2.739308,-3.108355,0.565587
4875,2.497432,-3.394541,0.484501
4876,2.267387,-3.687979,0.392329
4877,2.043477,-3.992374,0.273676
4878,1.842997,-4.317330,0.127149
4879,1.688990,-4.658533,-0.024783
4880,1.627587,-4.991537,-0.112319
4881,1.446819,-5.228901,-0.460693
4882,1.445591,-5.631666,-0.638285
4883,1.453254,-5.935684,-0.807823
4884,1.503777,-6.216035,-0.893952
4885,1.574600,-6.462622,-1.144317
4886,1.672446,-6.644406,-1.475537
4887,1.788660,-6.843122,-1.722520
4888,1.860906,-7.041293,-1.980491
4889,1.839543,-7.133989,-2.278101
4890,1.810848,-7.338516,-2.126516
4891,1.767137,-7.229603,-2.071288
4892,1.684435,-7.030604,-2.252965
4893,1.526683,-6.687216,-2.502919
4894,1.334652,-6.298808,-2.705885
4895,1.172222,-5.910447,-2.833730
4896,1.047431,-5.491770,-2.969222
4897,1.104835,-5.607150,-2.407413
4898,1.159646,-5.708297,-1.962169
4899,0.994566,-5.457588,-1.411585
4900,1.153315,-5.699526,-1.529967
4901,0.721766,-5.164975,-1.331138
4902,0.430896,-5.030434,-1.123078
4903,0.233851,-5.138311,-0.879197
4904,0.042850,-5.244815,-0.700132
4905,-0.144393,-4.986923,-0.834365
4906,-0.437407,-4.709340,-0.950068
4907,-0.734075,-4.426363,-1.073090
4908,-0.991958,-4.103206,-1.263145
4909,-1.227473,-3.726597,-1.534599
4910,-1.482136,-3.985576,-1.237065
4911,-1.710875,-4.319726,-0.940207
4912,-1.824350,-4.655532,-0.696823
4913,3.246631,1.695370,-1.715451
4914,3.539545,1.541594,-1.413146
4915,3.844489,1.374849,-1.113739
4916,4.156123,1.198542,-0.825259
4917,4.510189,0.987411,-0.520747
4918,4.803899,0.562706,-0.114021
4919,5.035638,0.107842,0.244711
4920,1.144648,-5.824307,-3.911939
4921,1.214907,-6.078117,-3.829623
4922,1.421152,-6.256807,-3.604513
4923,1.443458,-5.917468,-3.723555
4924,1.039489,-4.955514,-3.803572
4925,0.788091,-4.479297,-3.999972
4926,1.254805,-5.415155,-3.582076
4927,1.433749,-5.873602,-3.230943
4928,-5.932271,-5.262787,-0.063831
4929,-5.740466,-5.607828,0.109555
4930,-5.509056,-5.411942,-0.045056
4931,-5.238598,-5.016168,-0.328570
4932,-5.182999,-4.498538,-0.691520
4933,-5.095535,-4.147694,-0.970043
4934,-4.934876,-3.842255,-1.231950
4935,-4.768917,-3.468642,-1.564242
4936,-4.643013,-3.046346,-1.968539
4937,-4.537039,-2.632382,-2.414409
4938,-4.497098,-2.255969,-2.875260
4939,-4.541530,-2.031862,-3.184859
4940,-4.236407,-1.996033,-3.181659
4941,-3.910793,-1.828169,-3.365407
4942,-3.607684,-1.736032,-3.471402
4943,-3.287164,-1.661470,-3.587394
4944,-2.981075,-1.575048,-3.752131
4945,-2.762373,-1.482626,-3.944907
4946,-2.542561,-1.636105,-3.746096
4947,-2.221996,-1.816673,-3.565671
4948,-1.879715,-2.055664,-3.344795
4949,-1.589059,-2.385414,-2.989497
4950,-0.764981,-2.615122,-3.374115
4951,-0.401425,-2.936865,-3.406569
4952,-1.063204,-2.663642,-2.925266
4953,-1.365937,-2.764218,-2.564612
4954,-0.080729,1.064520,-4.523651
4955,0.125098,0.993726,-4.049459
4956,0.355633,0.909001,-3.564275
4957,0.602877,0.820669,-3.113224
4958,0.861327,0.730265,-2.703853
4959,1.121405,0.640539,-2.332470
4960,1.368789,0.544945,-2.000023
4961,1.590962,0.423695,-1.702986
4962,1.780229,0.225445,-1.406082
4963,1.944365,-0.137732,-1.044106
4964,2.241996,0.230197,-1.074511
4965,2.507269,0.563060,-1.139036
4966,2.757435,0.932709,-1.276254
4967,3.002871,1.315353,-1.470979
4968,-5.952175,-5.770953,0.241690
4969,-1.988271,-3.892081,-1.231323
4970,-2.449142,-3.880396,-1.192091
4971,-2.938142,-3.916798,-1.140707
4972,-3.524199,-5.054159,-0.413265
4973,-3.502710,-4.756152,-0.579596
4974,-3.731738,-5.051403,-0.414426
4975,-4.090372,-4.991600,-0.439436
4976,-4.448098,-5.196535,-0.297621
4977,-4.819424,-5.238050,-0.236233
4978,-3.437556,-4.254413,-0.895476
4979,-3.396555,-3.710184,-1.293211
4980,0.069500,-3.174348,-3.544416
4981,-0.108576,-2.610792,-3.387562
4982,-0.269629,-2.145232,-3.665882
4983,1.139655,-5.870297,-3.385536
4984,1.281403,-6.218356,-3.256101
4985,1.533949,-6.584969,-2.988415
4986,1.595234,-6.353069,-3.207599
4987,1.585615,-6.303182,-2.821880
4988,1.479747,-6.154380,-2.502878
4989,1.335024,-5.792721,-2.839041
4990,1.184771,-5.395804,-3.097425
4991,1.009745,-4.984896,-3.253598
4992,0.801777,-4.571464,-3.315099
4993,0.541684,-4.084630,-3.359536
4994,0.305847,-3.652495,-3.148429
4995,0.183198,-3.385432,-3.041897
4996,0.098728,-3.009894,-2.851607
4997,-0.138518,-2.034522,-3.101169
4998,-0.018993,-2.465991,-2.852850
4999,0.073508,-2.689789,-2.629824
5000,4.773276,-0.170198,0.313321
5001,4.519152,-0.440170,0.366474
5002,4.267652,-0.701653,0.406792
5003,4.072447,-0.966975,0.460126
5004,3.674573,-1.091403,0.367928
5005,3.352501,-1.474104,0.392842
5006,3.108838,-1.818383,0.408659
5007,2.906632,-2.142556,0.416159
5008,2.678903,-2.419969,0.379315
5009,2.414260,-2.677694,0.292950
5010,2.160538,-2.972178,0.195868
5011,2.013827,-3.287447,0.159335
5012,1.756053,-3.484829,-0.010564
5013,1.468138,-3.799862,-0.268199
5014,1.346118,-4.269332,-0.426070
5015,1.314339,-4.704203,-0.528958
5016,1.113440,-4.858144,-1.052047
5017,1.215687,-5.297688,-1.139671
5018,1.280677,-5.634417,-1.275279
5019,1.377421,-5.975094,-1.319498
5020,1.432999,-6.133393,-1.640046
5021,1.526921,-6.313183,-1.870073
5022,1.630424,-6.492608,-2.116677
5023,1.725597,-6.681278,-2.396614
5024,1.725366,-6.761192,-2.720370
5025,1.707560,-6.997259,-2.537670
5026,-4.015660,-2.408224,-2.618125
5027,-3.694038,-2.143920,-2.912967
5028,-3.406304,-2.024070,-3.054497
5029,-3.105951,-1.951806,-3.166077
5030,-2.738736,-1.848981,-3.367731
5031,-2.343694,-2.057267,-3.153679
5032,-2.078516,-2.266053,-2.941685
5033,-1.855172,-2.564620,-2.617051
5034,-1.644594,-2.926431,-2.242172
5035,-1.171093,-3.153624,-2.170041
5036,-1.442502,-3.322100,-1.871046
5037,-0.894875,-3.063641,-2.453399
5038,-0.583408,-3.055778,-2.789817
5039,-0.280931,-3.237435,-2.958990
5040,-0.072104,-3.500743,-2.857612
5041,0.132858,-3.810461,-2.656900
5042,0.346644,-4.191319,-2.354972
5043,0.603276,-4.687964,-1.979791
5044,0.895482,-5.144464,-1.908584
5045,1.054371,-5.438055,-1.946744
5046,-1.728572,-3.547496,-1.570935
5047,-2.270077,-3.351259,-1.657752
5048,-2.669192,-3.442313,-1.526113
5049,-3.003414,-3.335527,-1.606320
5050,-3.370604,-3.234561,-1.699180
5051,-3.818263,-3.545988,-1.443716
5052,-3.741886,-3.081005,-1.861796
5053,-3.853109,-4.068854,-1.034037
5054,-3.839999,-4.597251,-0.676850
5055,-4.236969,-4.398087,-0.808381
5056,-4.528000,-4.614336,-0.650581
5057,-4.832023,-4.763378,-0.528702
5058,-4.859295,-4.384870,-0.791503
5059,-4.673471,-4.185358,-0.952460
5060,-4.238565,-3.308177,-1.679429
5061,-4.360559,-3.841641,-1.224868
5062,-4.130672,-2.851538,-2.123708
5063,-2.688741,-3.035106,-1.905245
5064,-2.389979,-2.862188,-2.125546
5065,-3.037319,-2.925418,-1.997533
5066,-3.348242,-2.861993,-2.062249
5067,-3.651416,-2.702266,-2.246024
5068,-3.484283,-2.453279,-2.518261
5069,-3.230250,-2.330916,-2.660619
5070,-2.953209,-2.259165,-2.763679
5071,-2.637230,-2.185666,-2.905778
5072,-2.370739,-2.230654,-2.899331
5073,-2.286486,-2.415286,-2.678165
5074,-2.110614,-2.726409,-2.337337
5075,-1.930298,-3.107679,-1.958439
5076,0.460305,0.409452,-2.945828
5077,0.735736,0.336353,-2.530746
5078,1.010464,0.277640,-2.167698
5079,1.265783,0.235361,-1.868663
5080,1.618678,-0.403852,-1.137555
5081,1.555182,-0.059416,-1.402886
5082,2.220288,-0.539096,-0.618528
5083,1.811981,-0.699708,-0.823674
5084,2.503656,-0.105640,-0.692760
5085,2.803648,0.284850,-0.772502
5086,3.061466,0.708484,-0.936046
5087,3.298795,1.131603,-1.154603
5088,-3.362573,-2.647759,-2.288573
5089,-3.168849,-2.622508,-2.318380
5090,-2.835058,-2.620335,-2.338615
5091,-2.537807,-2.506095,-2.509602
5092,3.616695,0.941279,-0.847334
5093,3.951890,0.760527,-0.564107
5094,4.255151,0.525375,-0.281236
5095,4.514853,0.195849,0.021790
5096,4.286013,-0.099142,0.113622
5097,4.120598,-0.362065,0.196415
5098,3.338837,-0.564416,-0.010839
5099,3.828858,-0.550394,0.181493
5100,3.036243,-1.004025,0.061133
5101,2.764386,-1.426552,0.102559
5102,2.656001,-1.801977,0.184931
5103,2.493588,-2.044627,0.174577
5104,2.222292,-2.190796,0.052877
5105,1.864827,-2.448837,-0.131743
5106,1.699389,-2.956899,-0.144570
5107,1.379183,-3.134582,-0.411493
5108,1.071517,-3.353484,-0.770023
5109,1.029749,-3.879671,-0.857451
5110,0.981913,-4.331046,-1.066874
5111,0.899062,-4.577250,-1.510220
5112,1.012012,-4.970822,-1.734795
5113,1.150205,-5.377299,-1.773889
5114,1.261015,-5.710707,-1.829969
5115,1.348283,-5.933283,-1.989942
5116,1.393487,-6.018469,-2.227640
5117,0.362277,-4.655220,-1.522201
5118,0.035244,-4.701144,-1.188093
5119,-0.331956,-4.368192,-1.304008
5120,-0.593829,-4.147168,-1.378393
5121,-0.794804,-3.886630,-1.540630
5122,-0.980338,-3.539393,-1.822385
5123,1.271557,-5.728865,-2.502066
5124,1.152739,-5.416103,-2.674765
5125,1.018229,-5.069257,-2.775376
5126,0.851601,-4.698302,-2.771701
5127,0.657568,-4.306209,-2.704582
5128,0.474166,-3.916552,-2.614608
5129,0.317540,-3.496013,-2.526982
5130,0.287012,-3.134857,-2.266052
5131,0.206413,-2.774241,-2.322048
5132,0.130331,-2.378828,-2.408106
5133,0.052648,-1.952275,-2.575503
5134,1.262769,-5.728092,-2.213605
5135,1.174605,-5.494405,-2.263200
5136,1.066412,-5.194937,-2.287683
5137,0.939455,-4.883915,-2.350215
5138,0.791718,-4.524072,-2.116150
5139,0.615803,-4.094709,-2.085247
5140,0.529384,-3.731341,-1.958092
5141,0.493023,-3.314732,-1.828101
5142,0.439849,-2.843223,-1.823288
5143,0.356565,-2.377890,-1.949055
5144,0.296799,-1.929836,-2.088512
5145,0.301802,-0.493541,-2.583701
5146,0.360467,-0.028174,-2.769570
5147,-0.745301,-3.431385,-2.076569
5148,-0.503921,-3.420125,-2.282368
5149,-0.248318,-3.477487,-2.503468
5150,-0.060906,-3.618302,-2.556228
5151,0.026421,-3.828087,-2.318980
5152,0.204104,-4.213773,-1.957735
5153,0.659025,-0.083363,-2.333425
5154,0.961291,-0.110598,-1.960532
5155,1.253949,-0.093971,-1.662996
5156,1.318659,-0.488959,-1.369130
5157,1.466020,-0.915789,-1.011599
5158,1.670699,-1.346877,-0.639898
5159,2.019995,-1.131175,-0.464912
5160,2.464150,-0.992472,-0.244429
5161,2.765325,-0.526929,-0.305271
5162,3.088915,-0.090345,-0.387840
5163,3.421044,0.427666,-0.562111
5164,3.836645,0.383965,-0.347648
5165,4.047244,0.161126,-0.124166
5166,-0.606322,-3.764720,-1.769958
5167,-0.445060,-3.695399,-1.964167
5168,-0.179331,-3.828488,-2.036592
5169,-0.025052,-4.265545,-1.620153
5170,-0.353972,-4.011305,-1.660524
5171,0.757102,-4.259019,-1.654109
5172,0.732806,-3.951047,-1.480865
5173,0.749077,-3.543801,-1.317039
5174,0.761146,-2.930706,-1.260141
5175,0.624665,-2.381617,-1.493894
5176,0.569418,-1.948282,-1.643961
5177,0.272704,-1.466823,-2.231173
5178,0.585910,-1.512419,-1.745370
5179,0.275537,-0.980088,-2.396601
5180,0.610760,-1.024696,-1.899172
5181,0.623462,-0.536310,-2.116008
5182,0.966499,-0.551519,-1.701899
5183,1.019006,-1.099454,-1.383508
5184,1.292607,-1.518699,-0.919552
5185,1.536058,-1.961093,-0.535233
5186,1.899937,-1.799669,-0.290306
5187,2.293404,-1.613957,-0.092057
5188,3.630036,-0.045488,-0.170238
5189,1.415341,-2.518789,-0.494648
5190,1.094884,-2.699432,-0.804528
5191,1.122286,-2.063974,-0.913426
5192,0.877767,-2.360961,-1.131830
5193,0.886938,-1.666783,-1.304616
5194,0.802687,-2.018757,-1.297412
5195,9.194522,7.554266,-4.917381
5196,8.840401,4.319640,-6.853192
5197,3.400783,3.845262,-10.950376
5198,8.497688,3.849295,-4.278244
5199,11.176258,5.440209,2.124561
5200,4.651543,-6.929291,1.329560
5201,-4.801101,0.407923,-10.424074
5202,-3.289707,0.501888,-10.190775
5203,-3.678057,0.466061,-9.832289
5204,-10.279735,-6.860324,0.136802
5205,0.735576,-4.737372,-3.667533
5206,-7.676715,-5.149828,0.032364
5207,-6.037931,-5.463058,0.080906
5208,1.204126,-5.811800,-1.708421
5209,1.473313,0.190986,-1.639732
5210,-0.544134,-3.973423,-1.573077
5211,-0.001834,-1.472495,-2.746998
5212,-0.023615,-0.965447,-2.931820
5213,3.941414,-0.148731,0.017618
5214,-0.441900,-1.418580,-13.238388
5215,0.121066,-3.301877,-6.366074
5216,-0.038597,-3.021426,-6.311252
5217,-5.901767,5.137386,-7.618717
5218,-5.815860,5.176259,-7.206317
5219,-6.034744,5.620501,-7.480733
5220,-5.866780,5.663824,-7.145857
5221,-5.845347,6.202852,-7.106818
5222,-6.073858,6.126245,-7.525230
5223,-5.869952,6.649510,-7.377935
5224,-6.009178,6.642651,-7.590975
5225,-5.610745,6.997576,-7.312313
5226,-5.860406,7.107329,-7.561569
5227,-5.791570,7.369807,-7.533139
5228,-5.429302,6.988671,-7.337259
5229,-5.815149,6.997311,-7.653035
5230,-5.989153,7.341937,-7.638429
5231,-6.242207,6.752386,-7.987579
5232,-6.379443,7.130479,-7.884647
5233,-6.769949,6.872787,-8.179665
5234,-6.582219,6.509824,-8.285426
5235,-7.094116,6.595604,-8.430983
5236,-6.941607,6.336815,-8.477743
5237,-7.368270,6.281976,-8.642927
5238,-7.028028,5.990459,-8.518344
5239,-7.580277,5.940090,-8.884183
5240,-7.266890,5.738218,-8.700477
5241,-7.676768,5.588406,-9.129783
5242,-7.392872,5.393871,-8.975697
5243,-7.601385,5.273563,-9.250241
5244,-7.348030,5.071712,-9.147756
5245,-6.974847,4.985725,-8.861321
5246,-7.004473,5.290780,-8.654394
5247,-6.551258,4.898104,-8.545637
5248,-6.669532,5.242076,-8.322579
5249,-6.125316,4.692981,-8.343670
5250,-6.268767,5.047474,-8.098552
5251,-5.879382,4.893503,-7.894207
5252,-5.756690,4.650719,-8.054684
5253,-5.747406,4.367874,-8.305455
5254,-5.531470,4.354772,-8.056275
5255,-5.445904,4.005335,-8.438014
5256,-5.272928,3.971209,-8.073443
5257,-5.223436,3.658102,-8.694002
5258,-5.061742,3.609801,-8.360151
5259,-5.121935,3.286621,-8.947813
5260,-4.855800,3.245541,-8.656435
5261,-5.162840,2.868442,-9.155293
5262,-4.799127,2.891004,-8.958072
5263,-5.240405,2.480480,-9.409566
5264,-4.828385,2.573359,-9.261690
5265,-5.238044,2.196338,-9.752430
5266,-4.814875,2.303883,-9.591339
5267,-4.736480,2.083159,-9.940963
5268,-5.149030,2.017313,-10.128406
5269,-4.624406,1.890329,-10.280107
5270,-5.021098,1.873772,-10.469622
5271,-4.528091,1.635313,-10.623529
5272,-4.894298,1.663027,-10.739104
5273,-4.801130,1.372593,-10.983698
5274,-4.327556,1.352090,-10.885247
5275,-4.724388,1.107761,-11.291136
5276,-4.414615,1.107527,-11.241514
5277,-4.574838,0.940745,-11.637328
5278,-4.380319,0.978389,-11.465421
5279,-4.290014,0.872301,-11.924831
5280,-4.113658,0.985857,-11.561149
5281,-3.898306,0.877706,-12.114124
5282,-3.758415,0.963159,-11.719989
5283,-3.476304,0.901152,-12.213457
5284,-3.433737,0.942618,-11.853639
5285,-3.069091,0.868493,-12.214947
5286,-3.015946,0.856614,-11.827451
5287,-2.680209,0.769249,-12.139652
5288,-2.680077,0.730099,-11.782045
5289,-2.298370,0.686926,-12.054888
5290,-2.337963,0.679518,-11.734265
5291,-1.939272,0.731996,-11.676781
5292,-1.897045,0.692860,-11.999753
5293,-1.454224,0.756807,-11.980077
5294,-1.539574,0.825418,-11.612226
5295,-1.017135,0.860389,-12.036342
5296,-1.051059,0.962777,-11.685771
5297,-0.685247,1.069526,-12.211111
5298,-0.626190,1.195156,-11.896671
5299,-0.477822,1.395155,-12.470224
5300,-0.369225,1.500766,-12.143437
5301,-0.300971,1.763317,-12.727279
5302,-0.166782,1.820819,-12.394434
5303,-0.065814,2.108929,-12.925244
5304,0.004394,2.066241,-12.614249
5305,0.227831,2.402629,-13.063921
5306,0.281777,2.313041,-12.689844
5307,0.542096,2.638954,-13.154033
5308,0.629204,2.582340,-12.833814
5309,1.007666,2.804222,-12.810349
5310,0.867478,2.839636,-13.174924
5311,1.211613,3.029671,-13.105147
5312,1.377504,3.007010,-12.722502
5313,1.567806,3.203010,-12.970074
5314,1.553577,3.127807,-12.766876
5315,1.926481,3.347811,-12.818931
5316,1.691235,3.155634,-12.580139
5317,2.299207,3.474007,-12.669686
5318,2.058614,3.308176,-12.377152
5319,2.696632,3.599597,-12.500370
5320,2.422721,3.452589,-12.207645
5321,2.798362,3.601317,-12.017090
5322,3.086933,3.752858,-12.277012
5323,3.143490,3.776912,-11.763232
5324,3.394878,3.967553,-11.974784
5325,3.392938,4.000919,-11.418368
5326,3.562430,4.235826,-11.586292
5327,3.633298,4.490346,-11.124212
5328,3.555970,4.291272,-11.021221
5329,3.741388,4.668135,-10.620831
5330,3.598757,4.322763,-10.574884
5331,3.970190,4.766204,-10.152233
5332,3.776066,4.452856,-10.117216
5333,4.270274,4.807492,-9.870025
5334,4.040182,4.594015,-9.751782
5335,4.605569,4.740932,-9.526019
5336,4.288501,4.567968,-9.384660
5337,4.540777,4.771291,-9.883698
5338,4.774363,4.780729,-9.691866
5339,-8.179061,9.669294,1.799191
5340,-8.116873,9.455701,1.673080
5341,-8.494237,9.442130,1.900370
5342,-8.229351,9.043687,1.574292
5343,-8.005774,8.722576,1.235863
5344,-7.814726,9.228646,1.347540
5345,-7.629700,8.810023,0.942265
5346,-7.807515,8.487766,0.894642
5347,-7.477053,8.510816,0.552310
5348,-7.708292,8.203513,0.559657
5349,-7.337324,8.252124,0.124635
5350,-7.557578,7.946233,0.117286
5351,-7.209090,8.020778,-0.342101
5352,-7.423313,7.722779,-0.351344
5353,-7.092577,7.806002,-0.822153
5354,-7.300689,7.507922,-0.832450
5355,-6.968274,7.595261,-1.302126
5356,-7.162391,7.296087,-1.307558
5357,-6.822081,7.376855,-1.770138
5358,-7.005497,7.076063,-1.761126
5359,-6.660520,7.151814,-2.223428
5360,-6.839875,6.853055,-2.210383
5361,-6.501955,6.941969,-2.677219
5362,-6.675238,6.649521,-2.670867
5363,-6.514611,6.456826,-3.131556
5364,-6.345412,6.749934,-3.133613
5365,-6.177440,6.555463,-3.578585
5366,-6.345277,6.259051,-3.582724
5367,-6.168258,6.060846,-4.029267
5368,-6.000121,6.357860,-4.014521
5369,-5.829406,6.177427,-4.458974
5370,-5.998844,5.879552,-4.486462
5371,-5.835924,5.709385,-4.944177
5372,-5.678185,6.022859,-4.914314
5373,-5.680816,5.538363,-5.389360
5374,-5.558487,5.892366,-5.370009
5375,-5.584527,5.381353,-5.840379
5376,-5.504610,5.784436,-5.829747
5377,-5.594407,5.284279,-6.319329
5378,-5.535376,5.659274,-6.228129
5379,-5.688280,5.223877,-6.791325
5380,-5.671972,5.768461,-6.699356
5381,10.017169,6.867291,-5.155067
5382,10.127781,7.203113,-4.986414
5383,10.121530,7.469038,-4.516953
5384,9.988170,7.702860,-4.057441
5385,9.836471,7.914116,-3.618075
5386,9.733507,8.096738,-3.171242
5387,9.689030,8.221447,-2.682605
5388,9.687213,8.317164,-2.164694
5389,9.720991,8.408589,-1.648295
5390,9.808070,8.494047,-1.139207
5391,9.949544,8.568633,-0.636318
5392,10.143812,8.627598,-0.146166
5393,10.398953,8.666654,0.318713
5394,10.715635,8.685424,0.741361
5395,11.099073,8.710926,1.118243
5396,11.617929,8.833129,1.451558
5397,12.274352,8.940950,1.707484
5398,12.740135,8.860286,1.896145
5399,13.017338,8.833891,1.973862
5400,13.324483,8.871437,1.987005
5401,13.811907,8.924676,1.963062
5402,13.577910,9.167550,1.785757
5403,13.123901,9.043980,1.832939
5404,13.334177,9.394468,1.608675
5405,12.827610,9.204727,1.679364
5406,13.081401,9.606468,1.429739
5407,12.547682,9.419564,1.516931
5408,12.331056,9.670314,1.371024
5409,12.819627,9.805158,1.245426
5410,12.549427,9.991643,1.056247
5411,12.126041,9.899293,1.220454
5412,12.271370,10.166770,0.864553
5413,11.894585,10.090169,1.040251
5414,11.623625,10.242953,0.846968
5415,11.985901,10.331379,0.671284
5416,11.321759,10.364817,0.657093
5417,11.692927,10.486466,0.478191
5418,11.392963,10.632612,0.285502
5419,11.012216,10.463732,0.462908
5420,10.711047,10.542370,0.246874
5421,11.088230,10.769300,0.090538
5422,10.780816,10.896005,-0.109274
5423,10.418838,10.602292,0.013648
5424,10.467301,11.015102,-0.306420
5425,10.126890,10.656127,-0.214338
5426,10.144257,11.128895,-0.493434
5427,9.828319,10.714913,-0.428402
5428,9.813397,11.237005,-0.673231
5429,9.522894,10.777129,-0.631360
5430,9.476148,11.339259,-0.848605
5431,9.218120,10.841101,-0.826437
5432,9.133029,11.435683,-1.019427
5433,8.909760,10.904679,-1.015091
5434,8.786175,11.524702,-1.186148
5435,8.588157,10.990647,-1.183671
5436,8.437874,11.604679,-1.349608
5437,8.211744,11.053707,-1.338389
5438,8.083775,11.679329,-1.504903
5439,7.846717,11.245324,-1.472617
5440,7.719579,11.752342,-1.647032
5441,7.544560,11.396509,-1.589248
5442,7.347606,11.822324,-1.777222
5443,7.178837,11.316535,-1.692032
5444,6.970047,11.888209,-1.896730
5445,6.775575,11.430693,-1.830422
5446,6.587681,11.949683,-2.004496
5447,6.442995,11.403639,-1.905788
5448,6.202611,12.004268,-2.098487
5449,6.150878,11.510561,-1.987334
5450,5.817328,12.049339,-2.177013
5451,5.779442,11.535530,-2.053624
5452,5.428503,12.090189,-2.238612
5453,5.403806,11.559758,-2.107779
5454,5.032961,12.132020,-2.282409
5455,4.970181,11.656303,-2.170361
5456,4.539285,11.673952,-2.197008
5457,4.633851,12.172090,-2.309020
5458,4.192164,11.392328,-2.158071
5459,4.234426,12.207442,-2.319593
5460,3.728654,11.706613,-2.217998
5461,3.835802,12.237533,-2.314939
5462,3.437932,12.263548,-2.296399
5463,3.283756,11.738728,-2.204828
5464,3.041619,12.284959,-2.264470
5465,2.919161,11.778166,-2.185570
5466,2.649026,12.297903,-2.217149
5467,2.554056,11.805099,-2.153246
5468,2.262111,12.298718,-2.152575
5469,2.184859,11.806019,-2.104266
5470,1.878040,12.294290,-2.076755
5471,1.813309,11.798719,-2.043069
5472,1.493892,12.291518,-1.995685
5473,1.440957,11.792158,-1.971358
5474,1.111434,12.286892,-1.907812
5475,1.070127,11.781856,-1.887651
5476,0.732450,12.276704,-1.811399
5477,0.701720,11.763715,-1.790924
5478,0.357133,12.260489,-1.706838
5479,0.336258,11.736366,-1.681269
5480,-0.024745,11.703295,-1.560536
5481,-0.015215,12.239776,-1.596091
5482,-0.384489,12.214030,-1.479339
5483,-0.379573,11.668074,-1.430590
5484,-0.749215,12.179083,-1.353555
5485,-0.727225,11.630411,-1.287807
5486,-1.108003,12.130916,-1.215825
5487,-1.069367,11.591722,-1.129388
5488,-1.463880,12.077112,-1.073550
5489,-1.412046,11.558556,-0.963498
5490,-1.759613,11.528552,-0.801468
5491,-1.820110,12.025789,-0.934545
5492,-2.175268,11.972715,-0.795622
5493,-2.112020,11.487308,-0.650376
5494,-2.466221,11.424093,-0.510622
5495,-2.526227,11.909448,-0.650212
5496,-2.871471,11.831763,-0.495503
5497,-2.818474,11.340866,-0.378847
5498,-3.214373,11.747634,-0.338735
5499,-3.168500,11.249846,-0.254349
5500,-3.516413,11.157978,-0.135770
5501,-3.558065,11.664414,-0.186620
5502,-3.901191,11.578082,-0.036318
5503,-3.861086,11.063787,-0.017865
5504,-4.202486,10.965187,0.101866
5505,-4.242616,11.484971,0.114888
5506,-4.582090,11.384020,0.267095
5507,-4.540835,10.860496,0.222520
5508,-4.918041,11.272006,0.420819
5509,-4.875329,10.746831,0.343240
5510,-5.248730,11.145267,0.576954
5511,-5.205922,10.623831,0.464076
5512,-5.577676,11.010353,0.731422
5513,-5.534957,10.497323,0.584451
5514,-5.908395,10.873832,0.880095
5515,-5.863176,10.367552,0.702468
5516,-6.239146,10.731761,1.024417
5517,-6.189868,10.228247,0.816304
5518,-6.568004,10.579962,1.165820
5519,-6.513367,10.076867,0.925623
5520,-6.894431,10.417317,1.303660
5521,-6.834142,9.909444,1.029664
5522,-7.219146,10.244670,1.437089
5523,-7.151128,9.747074,1.147512
5524,-7.542908,10.063514,1.566008
5525,-7.464629,9.557312,1.260577
5526,-7.864145,9.874086,1.688255
5527,4.773482,4.615567,-10.055799
5528,4.941350,4.700827,-9.951015
5529,5.063583,4.416368,-10.113974
5530,5.271593,4.586002,-10.152066
5531,5.457711,4.340881,-9.994992
5532,5.585059,4.572537,-10.152357
5533,5.902320,4.410911,-9.880201
5534,5.906233,4.625069,-10.113764
5535,6.311813,4.488227,-9.945738
5536,6.113925,4.650545,-10.163653
5537,6.584480,4.476795,-10.228143
5538,6.238653,4.627229,-10.300770
5539,6.629413,4.427392,-10.673434
5540,6.337801,4.640162,-10.555964
5541,6.503566,4.446407,-11.150566
5542,6.346731,4.726574,-10.828347
5543,6.436055,4.496808,-11.441524
5544,6.345962,4.777053,-11.028175
5545,6.546488,4.430563,-11.385612
5546,6.477633,4.629422,-11.096410
5547,6.699909,4.258937,-11.040515
5548,6.620108,4.560985,-10.714451
5549,6.806658,4.501603,-10.373819
5550,6.797191,4.130107,-10.595529
5551,6.877331,4.099974,-10.163407
5552,6.985977,4.495239,-10.011052
5553,7.118460,4.486757,-9.592894
5554,6.950821,4.109977,-9.725741
5555,7.235204,4.458144,-9.143200
5556,7.030444,4.103737,-9.249074
5557,7.200235,4.064868,-8.762049
5558,7.417846,4.409857,-8.703576
5559,7.707010,4.375936,-8.328881
5560,7.538202,4.027089,-8.357016
5561,7.962429,4.095325,-8.136163
5562,8.007659,4.432503,-8.058198
5563,8.162097,4.641328,-7.894122
5564,8.231201,4.364619,-8.101171
5565,8.170855,5.009102,-7.817617
5566,8.248696,4.808102,-8.142561
5567,8.224987,5.298921,-8.198385
5568,8.206652,5.501300,-7.797976
5569,8.370749,5.726486,-8.319632
5570,8.356722,5.909617,-7.896025
5571,8.683135,6.057400,-8.501147
5572,8.575331,6.185458,-8.080600
5573,9.051227,6.311010,-8.601255
5574,8.936802,6.431949,-8.289406
5575,9.351250,6.493495,-8.522736
5576,9.161598,6.696762,-8.112164
5577,9.491402,6.577755,-8.344992
5578,9.274453,6.813500,-7.980106
5579,9.318747,6.778276,-7.803982
5580,9.534469,6.561514,-8.136497
5581,9.628806,6.477770,-7.831181
5582,9.440491,6.673844,-7.522794
5583,9.756241,6.347688,-7.388273
5584,9.616227,6.580967,-7.127357
5585,9.757890,6.532226,-6.681747
5586,9.825730,6.217507,-6.875121
5587,9.849015,6.528746,-6.229621
5588,9.838866,6.148574,-6.365899
5589,9.932181,6.564992,-5.783200
5590,9.838656,6.160066,-5.876963
5591,9.847418,6.235560,-5.400099
5592,10.041065,6.618050,-5.344790
5593,9.883601,6.365872,-5.006544
5594,10.172753,6.676845,-4.979213
5595,9.959504,6.571864,-4.897474
5596,10.262222,6.831398,-4.844764
5597,-5.662538,6.312755,-6.698768
5598,-5.640159,6.693236,-6.908711
5599,-5.362183,6.909067,-6.923106
5600,-5.187248,6.824537,-6.922890
5601,-5.885105,6.506881,-7.720326
5602,-6.199160,6.365146,-8.039563
5603,-6.393621,6.283881,-8.233643
5604,-6.654510,6.144335,-8.342073
5605,-6.780844,5.799415,-8.331677
5606,-6.956317,5.568184,-8.474747
5607,-5.497137,6.639011,-7.326121
5608,-5.255021,6.590772,-6.809958
5609,-6.657248,5.507283,-8.198105
5610,-6.351109,5.328012,-7.962073
5611,-5.947949,5.178503,-7.658327
5612,-5.622436,5.082494,-7.266739
5613,-5.638210,4.875832,-7.556005
5614,-5.586784,4.654198,-7.791430
5615,-5.333056,4.311697,-7.728630
5616,-5.079558,3.976103,-7.788132
5617,-4.875970,3.670808,-7.999572
5618,-4.598882,3.290646,-8.260911
5619,-4.393925,2.880152,-8.625298
5620,-4.425582,2.605721,-9.070502
5621,-4.396657,2.380186,-9.426525
5622,-4.329312,2.154435,-9.750433
5623,-4.215472,1.935278,-10.052160
5624,-4.083704,1.725553,-10.361220
5625,-3.978166,1.495441,-10.688730
5626,-3.968478,1.232700,-11.071707
5627,-3.578211,1.129869,-11.356851
5628,-3.179307,1.048016,-11.454820
5629,-2.875008,0.883644,-11.493536
5630,-2.619616,0.750837,-11.530729
5631,-2.325541,0.749232,-11.485135
5632,-1.901492,0.863377,-11.329116
5633,-1.364162,0.922457,-11.402535
5634,-1.016934,1.062281,-11.355105
5635,-0.604358,1.300491,-11.520715
5636,-0.278857,1.606744,-11.831136
5637,-0.100777,1.852279,-12.097704
5638,0.173144,2.133656,-12.287195
5639,0.551865,2.402148,-12.383237
5640,0.850580,2.608183,-12.498690
5641,1.145363,2.780062,-12.434324
5642,1.471454,2.954895,-12.275229
5643,1.813148,3.128681,-12.081446
5644,2.155135,3.293987,-11.901485
5645,2.508260,3.454812,-11.739760
5646,2.866053,3.624479,-11.544013
5647,3.160740,3.805613,-11.329399
5648,3.348180,4.002792,-10.902233
5649,3.492916,4.136448,-10.391982
5650,3.615900,4.205539,-10.013414
5651,3.854717,4.345009,-9.632501
5652,4.027536,4.351218,-9.201703
5653,4.187690,4.358894,-8.843413
5654,4.476380,4.505245,-9.023619
5655,4.758568,4.663138,-9.266624
5656,4.944707,4.767229,-9.604929
5657,5.295497,4.789211,-9.967942
5658,5.582002,4.723047,-10.303050
5659,5.692364,4.688750,-10.274366
5660,5.903893,4.700012,-10.320476
5661,12.020592,9.247247,1.498307
5662,11.879945,9.521947,1.382864
5663,11.736559,9.744662,1.235885
5664,11.562631,9.911819,1.041854
5665,11.325698,10.023979,0.836188
5666,11.036889,10.099921,0.652342
5667,10.735019,10.159832,0.472239
5668,10.446031,10.198746,0.259616
5669,10.167397,10.208631,0.023844
5670,9.889823,10.215417,-0.213671
5671,9.606614,10.237612,-0.444837
5672,9.320610,10.269201,-0.667138
5673,9.033379,10.297428,-0.887063
5674,8.674866,10.283877,-1.145912
5675,8.340180,10.504757,-1.305521
5676,8.069022,10.556629,-1.424639
5677,7.836477,10.733891,-1.476838
5678,7.472575,10.885602,-1.570360
5679,7.103083,10.794878,-1.675075
5680,6.823439,10.916750,-1.756918
5681,6.475938,10.971950,-1.847604
5682,6.123046,11.005311,-1.918791
5683,5.762372,11.021841,-1.973099
5684,5.401315,11.036149,-2.014156
5685,5.089135,11.136246,-2.056660
5686,4.687842,11.070742,-2.080665
5687,4.294548,10.800832,-2.072928
5688,3.440484,11.254199,-2.150401
5689,3.136917,11.249398,-2.144646
5690,2.808797,11.287233,-2.136180
5691,2.464629,11.306078,-2.115519
5692,2.109012,11.302325,-2.080358
5693,1.748426,11.294061,-2.031458
5694,1.386402,11.284606,-1.968018
5695,1.024598,11.269192,-1.888852
5696,0.663998,11.243183,-1.792920
5697,0.306936,11.205473,-1.680535
5698,-0.043950,11.159902,-1.554979
5699,-0.395339,11.101451,-1.415302
5700,-0.739942,11.068675,-1.252927
5701,-1.068905,11.051608,-1.076957
5702,-1.398869,11.030073,-0.897525
5703,-1.737950,11.018286,-0.722800
5704,-2.085206,10.985196,-0.570316
5705,-2.439322,10.922196,-0.444036
5706,-2.794932,10.836661,-0.338257
5707,-3.148092,10.741290,-0.245430
5708,-3.496727,10.644726,-0.158279
5709,-3.840300,10.548029,-0.070656
5710,-4.179553,10.448057,0.019272
5711,-4.515710,10.342623,0.109562
5712,-4.849248,10.231793,0.197983
5713,-5.179207,10.118315,0.286492
5714,-5.504748,10.003828,0.375647
5715,-5.827159,9.883507,0.461467
5716,-6.148173,9.750413,0.541509
5717,-6.469931,9.594686,0.614570
5718,-6.820146,9.385959,0.688454
5719,-7.140557,9.361440,0.914912
5720,-7.371030,9.125687,0.933347
5721,3.768400,10.975453,-2.119063
5722,3.985603,10.506069,-2.074612
5723,5.967038,4.738531,-10.457254
5724,6.084638,4.866134,-10.561856
5725,6.200839,4.954478,-10.693794
5726,6.329395,4.894264,-10.626129
5727,6.560654,4.815998,-10.346954
5728,6.835917,4.796616,-10.112057
5729,7.064456,4.796865,-9.807681
5730,7.223705,4.780492,-9.427640
5731,7.358248,4.752019,-9.024475
5732,7.509692,4.710870,-8.608957
5733,7.702474,4.673250,-8.201368
5734,7.893296,4.686145,-7.838731
5735,8.012967,4.825838,-7.574534
5736,8.059774,5.174819,-7.382842
5737,8.124626,5.582877,-7.374236
5738,8.247677,5.897828,-7.510608
5739,8.438354,6.199529,-7.677012
5740,8.716003,6.614977,-7.666692
5741,9.016657,6.909862,-7.738659
5742,9.066395,7.014569,-7.581760
5743,9.125773,6.959950,-7.414011
5744,9.272239,6.859373,-7.166876
5745,9.493225,6.825440,-6.836830
5746,9.700737,6.850867,-6.463614
5747,9.868709,6.902401,-6.073388
5748,10.036517,6.960607,-5.677930
5749,10.224544,6.987121,-5.273342
5750,10.399175,6.996535,-4.899196
5751,10.450571,7.156420,-4.610856
5752,5.722279,4.876338,-10.213748
5753,6.029011,4.985396,-10.318753
5754,6.197648,4.944022,-10.076194
5755,6.499226,4.914814,-9.856234
5756,6.843430,4.939156,-9.815111
5757,7.011945,4.952523,-9.520148
5758,7.190052,4.956569,-9.206643
5759,7.305743,4.944832,-8.866319
5760,7.387260,4.905197,-8.436839
5761,7.510976,4.850552,-7.970447
5762,7.666412,4.822237,-7.544472
5763,7.804995,4.909818,-7.210619
5764,7.870444,5.138623,-6.895233
5765,8.003750,5.511506,-6.966857
5766,8.099138,5.897789,-7.031399
5767,8.298266,6.314602,-7.119689
5768,8.481788,6.809884,-6.903184
5769,8.800806,7.032947,-7.261076
5770,8.886159,7.175550,-7.079818
5771,8.959626,7.101376,-6.947711
5772,9.108518,7.017311,-6.741130
5773,9.354615,7.035127,-6.483583
5774,9.605945,7.123199,-6.187480
5775,9.827355,7.232025,-5.864903
5776,10.043916,7.321760,-5.514731
5777,10.267058,7.345886,-5.129971
5778,10.465949,7.338467,-4.742509
5779,10.570142,7.393949,-4.422957
5780,10.448082,7.478867,-4.180281
5781,10.319704,7.748223,-3.715367
5782,10.132231,8.035769,-3.335297
5783,9.994804,8.222819,-3.008675
5784,10.017100,8.340925,-2.593226
5785,10.010231,8.447298,-2.105177
5786,10.020441,8.551394,-1.624360
5787,10.077675,8.661102,-1.144022
5788,10.181353,8.766745,-0.664029
5789,10.339324,8.852718,-0.194920
5790,10.560736,8.910919,0.249153
5791,10.837711,8.944791,0.663411
5792,11.203340,9.035346,1.062746
5793,11.600227,9.163544,1.352366
5794,-7.229041,8.816901,0.571056
5795,-7.082766,8.554194,0.155826
5796,-6.961872,8.299995,-0.306213
5797,-6.852190,8.072539,-0.784752
5798,-6.741519,7.862884,-1.266155
5799,-6.618631,7.658508,-1.739926
5800,-6.478715,7.444577,-2.195522
5801,-6.334999,7.234740,-2.644140
5802,-6.192338,7.048785,-3.099713
5803,-6.033635,6.867360,-3.546452
5804,-5.857617,6.674988,-3.974786
5805,-5.687372,6.492518,-4.401783
5806,-5.547993,6.343887,-4.842431
5807,-5.453436,6.237555,-5.291960
5808,-5.421104,6.180143,-5.744706
5809,-5.505330,6.139792,-6.249243
5810,-6.567951,5.748021,-8.147759
5811,-6.348312,5.654794,-7.940845
5812,-6.049901,5.546883,-7.624870
5813,-5.765793,5.424589,-7.265352
5814,-5.378725,4.939762,-6.920379
5815,-5.531939,5.310344,-6.873652
5816,-5.415498,4.738666,-7.280175
5817,-5.437131,4.604339,-7.533667
5818,-5.261937,4.454984,-7.395163
5819,-4.953377,4.203852,-7.397367
5820,-4.644879,3.860439,-7.620195
5821,-4.340538,3.499360,-7.828335
5822,-4.008660,2.567253,-8.850004
5823,-3.946086,2.721975,-8.488868
5824,-3.976541,2.390675,-9.221710
5825,-3.907510,2.187571,-9.541956
5826,-3.888034,1.995908,-9.816139
5827,-3.612614,1.795582,-10.037396
5828,-3.533025,1.622058,-10.433592
5829,-3.509836,1.416580,-10.843514
5830,-3.137805,1.325001,-11.002569
5831,-2.849373,1.148100,-11.117381
5832,-2.501463,0.929019,-11.235629
5833,-2.010638,1.089267,-10.900046
5834,-1.409541,1.066290,-11.035864
5835,-0.867141,1.237146,-11.098794
5836,-0.511268,1.453517,-11.191286
5837,-0.187419,1.715194,-11.444356
5838,0.056822,1.969065,-11.852328
5839,0.387416,2.232394,-11.971659
5840,0.642299,2.395036,-12.082536
5841,0.782810,2.500954,-12.254351
5842,0.976159,2.621614,-12.240599
5843,1.197987,2.741392,-11.979886
5844,1.558276,2.955074,-11.765953
5845,1.887854,3.138947,-11.575010
5846,2.225148,3.311981,-11.427409
5847,2.586022,3.486264,-11.287928
5848,2.965793,3.697896,-11.100447
5849,3.123258,3.823675,-10.664086
5850,3.294384,3.950188,-10.228401
5851,3.478683,4.065299,-9.805341
5852,3.651404,4.151485,-9.421193
5853,3.783185,4.196895,-9.066103
5854,3.908602,4.224027,-8.693778
5855,4.064308,4.248003,-8.306174
5856,4.376335,4.370487,-8.495793
5857,4.689937,4.493901,-8.743034
5858,4.991847,4.628322,-9.048472
5859,5.258784,4.783449,-9.492989
5860,5.503915,4.874839,-9.852054
5861,-4.035821,3.039351,-8.122638
5862,-3.834281,3.351551,-7.659030
5863,-7.048583,9.095995,0.649092
5864,-6.804737,8.903341,0.260306
5865,-6.688399,8.566120,-0.234316
5866,-6.584369,8.307846,-0.698671
5867,-6.479726,8.080852,-1.165912
5868,-6.370999,7.870997,-1.632251
5869,-6.251477,7.667015,-2.089104
5870,-6.123359,7.467542,-2.537207
5871,-5.998435,7.296993,-2.993646
5872,-5.867899,7.152528,-3.454223
5873,-5.716551,6.996625,-3.893734
5874,-5.561597,6.827866,-4.311989
5875,-5.441133,6.681318,-4.731138
5876,-5.369221,6.579958,-5.160044
5877,-5.327494,6.535446,-5.571577
5878,-5.337663,6.559823,-5.928921
5879,-5.450248,6.674464,-6.291176
5880,-5.402771,6.875486,-6.467031
5881,-5.158162,6.919995,-6.416322
5882,-5.008501,6.813508,-6.399540
5883,-5.103781,6.598807,-6.299730
5884,-5.270923,6.299917,-6.141492
5885,-5.407387,6.288097,-6.626119
5886,-5.566417,6.281638,-7.065761
5887,-5.758907,6.200221,-7.405191
5888,-6.041144,6.003588,-7.729329
5889,-6.368625,6.014426,-8.098401
5890,-6.594178,5.921308,-8.229393
5891,11.478906,9.361173,1.224677
5892,11.422252,9.552766,1.077654
5893,11.318538,9.660647,0.875376
5894,11.116527,9.703343,0.644781
5895,10.855801,9.738048,0.457972
5896,10.585950,9.791668,0.300114
5897,10.318416,9.813840,0.115980
5898,10.049559,9.782694,-0.095774
5899,9.779834,9.746716,-0.325002
5900,9.504341,9.737310,-0.561315
5901,9.226904,9.742962,-0.796962
5902,8.934621,9.720418,-1.052337
5903,8.555712,9.554034,-1.415804
5904,8.265912,9.951145,-1.485185
5905,8.020762,10.152962,-1.589820
5906,7.771973,10.271180,-1.658385
5907,7.473975,10.340783,-1.692721
5908,7.138006,10.366196,-1.739680
5909,6.807425,10.395410,-1.800150
5910,6.474386,10.443023,-1.859643
5911,6.124304,10.477727,-1.909624
5912,5.770449,10.491777,-1.945379
5913,5.416693,10.514214,-1.972502
5914,5.062744,10.661044,-2.005926
5915,4.730849,10.471420,-2.020952
5916,4.425868,10.353373,-2.037987
5917,4.172645,10.147018,-2.054427
5918,3.718790,10.168330,-2.084872
5919,3.920091,9.821582,-2.077713
5920,3.533272,10.498209,-2.098076
5921,3.336254,10.824424,-2.115831
5922,3.022859,10.804363,-2.118099
5923,2.717519,10.806713,-2.116582
5924,2.385073,10.799684,-2.106214
5925,2.036667,10.789829,-2.083807
5926,1.682981,10.782121,-2.046931
5927,1.327103,10.771352,-1.993783
5928,0.970367,10.752782,-1.922873
5929,0.615284,10.721974,-1.832660
5930,0.265580,10.676956,-1.724676
5931,-0.086701,10.604557,-1.600788
5932,-0.500783,10.454263,-1.442071
5933,-0.835754,10.600971,-1.233967
5934,-1.122543,10.504375,-1.086962
5935,-1.445396,10.488688,-0.901131
5936,-1.769103,10.492992,-0.723469
5937,-2.105034,10.469341,-0.577521
5938,-2.453384,10.413209,-0.470227
5939,-2.806318,10.330640,-0.391934
5940,-3.156989,10.234172,-0.327080
5941,-3.502599,10.136982,-0.266953
5942,-3.842704,10.042368,-0.207829
5943,-4.178471,9.945163,-0.146895
5944,-4.512075,9.843051,-0.085597
5945,-4.843140,9.739869,-0.025316
5946,-5.168218,9.639342,0.035019
5947,-5.491056,9.534891,0.089533
5948,-5.811783,9.437894,0.152530
5949,-6.121936,9.323599,0.206013
5950,-6.439738,9.154434,0.234572
5951,5.755409,4.899957,-9.788785
5952,6.017084,4.840763,-9.477151
5953,6.315224,4.862695,-9.345257
5954,6.654339,4.944999,-9.459743
5955,6.869645,4.979430,-9.083234
5956,7.120482,5.019253,-9.014215
5957,7.071861,4.997076,-8.709355
5958,7.097343,4.952518,-8.205818
5959,7.220427,4.899915,-7.694722
5960,7.387727,4.858423,-7.229866
5961,7.557387,4.908499,-6.838358
5962,7.659340,5.062803,-6.536070
5963,7.802905,5.420876,-6.427382
5964,7.928947,5.854173,-6.515298
5965,8.044826,6.171560,-6.609943
5966,8.141063,6.537457,-6.424497
5967,8.603838,7.223372,-6.529576
5968,8.774429,7.281025,-6.604696
5969,8.809841,7.202567,-6.438019
5970,8.954362,7.137944,-6.279641
5971,9.202549,7.197615,-6.083182
5972,9.460796,7.329190,-5.857953
5973,9.689370,7.481563,-5.590608
5974,9.909608,7.603628,-5.270214
5975,10.144790,7.654670,-4.907585
5976,10.376303,7.660778,-4.544025
5977,10.525147,7.671473,-4.210301
5978,10.557954,7.705830,-3.894666
5979,10.556849,7.807599,-3.600939
5980,10.480073,7.992069,-3.250218
5981,10.294762,8.224815,-2.918796
5982,10.317761,8.379832,-2.448965
5983,10.280515,8.487936,-1.997910
5984,10.261729,8.598207,-1.553572
5985,10.289530,8.722469,-1.101045
5986,10.372837,8.847106,-0.651056
5987,10.525641,8.972210,-0.208477
5988,10.737308,9.094009,0.230804
5989,10.976031,9.179790,0.642824
5990,11.210016,9.296642,0.951329
5991,8.346098,6.939200,-6.407306
5992,8.137791,6.819050,-6.053472
5993,-5.138187,4.557842,-7.063170
5994,-4.606916,4.383819,-6.831795
5995,-4.434978,4.075717,-7.239811
5996,-4.062302,3.800222,-7.370231
5997,-3.621226,3.586152,-7.289511
5998,-3.422061,3.176345,-7.546200
5999,-3.257340,3.381679,-7.204844
6000,-3.545976,2.939265,-7.908594
6001,-3.597059,2.701542,-8.279046
6002,-3.589111,2.506266,-8.638001
6003,-3.554682,2.348763,-8.978507
6004,-3.463347,2.175907,-9.280154
6005,-3.371405,1.953920,-9.607102
6006,-3.088115,1.786475,-9.813164
6007,-3.064621,1.695913,-10.128691
6008,-3.053902,1.562274,-10.536891
6009,-2.711556,1.437614,-10.654143
6010,-2.425141,1.242566,-10.783701
6011,-5.040096,4.800414,-6.558911
6012,-3.961711,4.122818,-6.884713
6013,-3.695503,3.895722,-7.042139
6014,-3.394925,3.742621,-6.955946
6015,-3.061396,3.554160,-6.876285
6016,-2.692154,3.385511,-6.806127
6017,-2.879205,3.202596,-7.138367
6018,-3.041565,3.015031,-7.474930
6019,-3.154516,2.822423,-7.807746
6020,-3.200534,2.635941,-8.129257
6021,-3.189084,2.464626,-8.438146
6022,-3.135991,2.307757,-8.733117
6023,-3.115253,2.178580,-9.002965
6024,-2.845818,2.006669,-9.200296
6025,-2.730025,1.845126,-9.528939
6026,-2.601428,1.748771,-9.820378
6027,-2.592590,1.641950,-10.195364
6028,-2.270998,1.522545,-10.319835
6029,-1.996081,1.373037,-10.461647
6030,-1.605338,1.284143,-10.569639
6031,-1.138707,1.311585,-10.668518
6032,-0.706223,1.452778,-10.793922
6033,-0.340210,1.665950,-10.967303
6034,-0.043640,1.887044,-11.107125
6035,0.222460,2.083253,-11.459413
6036,0.617468,2.360854,-11.683451
6037,0.871049,2.525611,-11.997401
6038,0.970498,2.587641,-11.617124
6039,1.297303,2.798962,-11.444916
6040,1.620167,2.997171,-11.238779
6041,1.946762,3.180654,-11.077076
6042,2.296281,3.356248,-10.959644
6043,2.695883,3.557070,-10.848538
6044,2.864219,3.670917,-10.431555
6045,3.031322,3.786014,-9.955566
6046,3.305835,3.945308,-9.508939
6047,3.500610,4.048978,-9.224652
6048,3.590399,4.088137,-8.937000
6049,3.632616,4.094837,-8.590215
6050,3.762980,4.134723,-8.156716
6051,3.927453,4.175457,-7.746208
6052,4.253167,4.277067,-7.935466
6053,4.592457,4.385956,-8.164602
6054,4.927731,4.496981,-8.476613
6055,5.236273,4.609510,-8.839465
6056,5.516841,4.746112,-9.255649
6057,-4.050709,4.374272,-6.432960
6058,11.264027,9.444138,0.907018
6059,11.137775,9.411054,0.705563
6060,10.914595,9.351055,0.349588
6061,10.727503,9.408180,0.126917
6062,10.521824,9.487865,-0.007243
6063,10.282552,9.498574,-0.175473
6064,10.026362,9.424349,-0.351341
6065,9.771265,9.337537,-0.548691
6066,9.508978,9.287385,-0.776085
6067,9.235960,9.254867,-1.010424
6068,8.956482,9.190671,-1.278700
6069,8.701885,9.029775,-1.597986
6070,7.922972,9.728001,-1.877135
6071,8.104867,9.485779,-1.809413
6072,7.736082,9.857198,-1.931575
6073,7.477369,9.879866,-1.928830
6074,7.161109,9.866412,-1.916673
6075,6.828023,9.871324,-1.926687
6076,6.489651,9.897491,-1.945915
6077,6.144397,9.931187,-1.961462
6078,5.797222,9.953015,-1.971186
6079,5.448860,9.975932,-1.978578
6080,5.097119,10.130353,-1.989854
6081,4.730900,9.962439,-2.016808
6082,4.471491,10.089600,-2.030369
6083,4.378930,9.822725,-2.043892
6084,4.142438,9.459246,-2.081327
6085,3.627758,9.482515,-2.115276
6086,3.847874,9.123164,-2.134579
6087,3.439062,9.851193,-2.106915
6088,3.295690,10.200474,-2.104747
6089,3.210843,10.493102,-2.107277
6090,2.972828,10.400034,-2.113728
6091,2.670460,10.329546,-2.121232
6092,2.329728,10.283523,-2.123437
6093,1.975468,10.267888,-2.113939
6094,1.620761,10.264306,-2.089467
6095,1.265683,10.255529,-2.049108
6096,0.911255,10.237973,-1.990219
6097,0.562105,10.208626,-1.910407
6098,0.219510,10.159209,-1.811927
6099,-0.140245,10.044406,-1.699641
6100,-0.584917,9.730666,-1.587261
6101,-0.886692,10.073275,-1.319114
6102,-1.245539,9.953668,-1.141279
6103,-1.548086,9.961599,-0.955564
6104,-1.849238,9.969639,-0.791181
6105,-2.169519,9.960069,-0.665064
6106,-2.505379,9.918598,-0.588440
6107,-2.846459,9.843410,-0.538327
6108,-3.186849,9.745920,-0.492741
6109,-3.524665,9.647604,-0.453080
6110,-3.859480,9.557259,-0.421506
6111,-4.192402,9.467792,-0.390848
6112,-4.522901,9.375229,-0.357938
6113,-4.847447,9.283501,-0.323209
6114,-5.169055,9.189144,-0.292945
6115,-5.529742,9.069862,-0.280058
6116,-5.847218,9.114227,-0.113864
6117,-6.086821,8.970132,-0.150762
6118,-6.385208,8.792578,-0.180353
6119,-5.807527,5.809593,-7.283884
6120,-5.610266,5.656141,-6.872820
6121,-5.293971,5.210154,-6.440260
6122,-5.420859,5.588679,-6.430823
6123,-6.292761,8.506766,-0.603867
6124,-6.188748,8.255878,-1.033963
6125,-6.083033,8.023736,-1.471244
6126,-5.971606,7.812985,-1.910436
6127,-5.854124,7.625100,-2.355677
6128,-5.741683,7.472301,-2.814334
6129,-5.640152,7.363719,-3.286355
6130,-5.534571,7.263602,-3.749045
6131,-5.419509,7.134068,-4.179875
6132,-5.325905,6.996591,-4.586671
6133,-5.271112,6.884454,-4.982285
6134,-5.216603,6.812879,-5.346369
6135,-5.156778,6.812162,-5.618783
6136,-5.168725,6.882558,-5.793547
6137,-5.204522,6.947958,-6.002383
6138,-4.954859,6.973425,-5.910241
6139,-4.851719,6.846039,-5.892633
6140,-4.981465,6.624624,-5.797821
6141,-5.140569,6.331242,-5.648091
6142,-5.310372,5.943894,-6.014853
6143,-5.131485,5.977481,-5.529478
6144,-5.467756,5.947301,-6.489534
6145,-5.627025,5.978988,-6.919666
6146,-5.725535,6.037345,-7.180075
6147,5.688560,4.705936,-9.025677
6148,5.974276,4.741053,-8.883289
6149,6.408417,4.858343,-8.934513
6150,6.634193,4.902331,-8.457971
6151,6.749408,4.897155,-7.879550
6152,6.902148,4.867340,-7.372805
6153,7.086584,4.836115,-6.887520
6154,7.285308,4.891332,-6.465227
6155,7.470349,5.106148,-6.156761
6156,7.566361,5.436014,-5.858359
6157,7.749102,5.822461,-5.978207
6158,7.871415,6.202762,-6.073559
6159,7.943468,6.506326,-5.952002
6160,7.936446,6.688678,-5.689946
6161,7.965924,6.924763,-5.402503
6162,8.172180,7.076258,-5.763901
6163,8.348879,7.144450,-6.124275
6164,8.427325,7.404091,-5.816671
6165,8.630913,7.376095,-6.036010
6166,8.711755,7.255771,-6.003830
6167,8.831708,7.244582,-5.823165
6168,9.064085,7.326869,-5.663992
6169,9.305908,7.472737,-5.507051
6170,9.498572,7.631080,-5.289660
6171,9.687421,7.772595,-4.977593
6172,9.927911,7.870119,-4.633583
6173,10.192571,7.930535,-4.294645
6174,10.441438,7.968465,-3.914671
6175,10.598944,7.861843,-3.735495
6176,10.546883,8.045427,-3.462852
6177,10.582841,8.135063,-3.095649
6178,10.517545,8.265653,-2.777868
6179,10.471808,8.422436,-2.307808
6180,10.416971,8.518649,-1.891892
6181,10.393128,8.621511,-1.468745
6182,10.426532,8.730318,-1.048075
6183,10.525696,8.870889,-0.633948
6184,10.689565,9.093899,-0.167204
6185,8.305846,9.152760,-1.836187
6186,8.515224,8.776883,-1.979995
6187,10.637041,9.220928,-0.226727
6188,10.488379,9.287449,-0.403086
6189,10.276410,9.286454,-0.623398
6190,10.026302,9.197140,-0.665828
6191,9.842961,9.065029,-0.879228
6192,9.597862,8.948379,-1.081870
6193,9.332824,8.863843,-1.300071
6194,9.073678,8.781680,-1.549408
6195,8.856855,8.683908,-1.804681
6196,8.842320,8.418286,-2.228898
6197,8.328185,8.540162,-2.400745
6198,8.571625,8.218148,-2.700548
6199,8.125862,8.876733,-2.216644
6200,7.962393,9.145896,-2.157342
6201,7.848093,9.355312,-2.206594
6202,7.743092,9.481515,-2.250112
6203,7.539793,9.470408,-2.218784
6204,7.243367,9.403105,-2.157442
6205,6.910712,9.353299,-2.124065
6206,6.556375,9.350079,-2.100034
6207,6.195462,9.389255,-2.068324
6208,5.843601,9.417889,-2.047957
6209,5.494735,9.430632,-2.034469
6210,5.090080,9.508898,-2.028145
6211,4.625120,9.446260,-2.051985
6212,4.360153,9.066249,-2.109373
6213,4.068957,8.764536,-2.173562
6214,3.553306,8.774474,-2.204708
6215,3.796286,8.444249,-2.251786
6216,3.308960,9.133601,-2.171770
6217,3.119722,9.556075,-2.143615
6218,3.013271,9.993893,-2.122654
6219,10.220639,8.225023,-3.566349
6220,10.420354,8.324734,-3.072582
6221,10.445077,8.476244,-2.608918
6222,10.436448,8.579201,-2.206024
6223,10.409377,8.674354,-1.790619
6224,10.420655,8.762507,-1.383483
6225,10.491180,8.850239,-1.016677
6226,10.572671,9.033120,-0.630222
6227,3.299931,3.943737,-9.020498
6228,3.324140,3.967341,-8.447966
6229,3.499788,4.043120,-7.930899
6230,3.644316,4.084997,-7.488121
6231,3.738290,4.097866,-7.085722
6232,4.095009,4.199126,-7.284507
6233,4.458382,4.306710,-7.581487
6234,4.823012,4.410940,-7.860400
6235,5.166145,4.512993,-8.215656
6236,5.478775,4.613204,-8.630491
6237,-5.995845,8.685147,-0.510866
6238,-5.880648,8.419147,-0.896953
6239,-5.778024,8.162450,-1.304150
6240,-5.670208,7.945225,-1.714543
6241,-5.559446,7.765551,-2.147398
6242,-5.457284,7.620396,-2.608042
6243,-5.371017,7.511399,-3.083170
6244,-5.297184,7.422102,-3.555799
6245,-5.226024,7.314990,-4.004760
6246,-5.167044,7.188606,-4.418970
6247,-5.137863,7.078583,-4.788569
6248,-5.084786,6.986101,-5.082161
6249,-4.976740,6.945101,-5.273471
6250,-4.917282,6.998749,-5.377379
6251,-4.944027,7.044559,-5.537625
6252,-4.747087,7.034077,-5.443304
6253,-4.707674,6.886130,-5.417251
6254,-4.855835,6.673158,-5.306202
6255,-4.980990,6.396706,-5.162215
6256,-4.922648,6.061615,-5.047530
6257,-4.958562,5.611407,-5.451742
6258,-4.713117,5.731452,-4.969423
6259,-5.204620,5.560572,-5.951408
6260,-4.544970,4.688554,-6.193742
6261,-4.920485,5.146153,-5.914280
6262,-4.382362,5.000419,-5.515671
6263,-4.697403,5.347891,-5.350274
6264,-4.013980,4.601589,-5.934205
6265,-3.861201,4.834251,-5.418852
6266,-3.559368,4.550933,-5.799367
6267,-3.436297,4.766885,-5.372303
6268,-3.607080,4.359805,-6.186142
6269,-3.577115,4.190425,-6.505004
6270,-3.491527,4.007971,-6.739841
6271,-3.184130,3.863559,-6.652895
6272,-2.871021,3.717154,-6.565873
6273,-2.510900,3.577954,-6.480369
6274,-2.124193,3.448384,-6.422854
6275,-2.304639,3.243066,-6.763619
6276,-2.494880,3.059159,-7.101856
6277,-2.673962,2.887970,-7.436126
6278,-2.814522,2.732256,-7.744606
6279,-2.862851,2.590277,-8.007174
6280,-2.821206,2.447766,-8.250969
6281,-2.811150,2.318319,-8.499215
6282,-2.255461,1.899767,-9.251213
6283,-2.287688,2.028370,-8.902923
6284,-2.138222,1.811591,-9.542815
6285,-2.059150,1.715345,-9.880285
6286,-1.894816,1.596204,-10.106435
6287,-1.640656,1.527262,-10.191500
6288,-1.325664,1.490728,-10.279598
6289,-0.931108,1.545707,-10.362377
6290,-0.527061,1.685691,-10.495817
6291,-0.159148,1.882275,-10.670316
6292,0.168648,2.089269,-10.896289
6293,0.482404,2.291954,-11.149391
6294,0.761920,2.468595,-11.315849
6295,2.676025,9.825796,-2.147574
6296,2.294446,9.736176,-2.167856
6297,1.914934,9.729228,-2.171068
6298,1.555520,9.738144,-2.158080
6299,1.198977,9.737491,-2.130901
6300,0.847086,9.727569,-2.085154
6301,0.505294,9.707402,-2.016901
6302,0.172494,9.663501,-1.929825
6303,-0.163157,9.550095,-1.839259
6304,-0.478103,9.316656,-1.790972
6305,-1.133311,9.437654,-1.398642
6306,-1.427869,9.510925,-1.185520
6307,-1.687756,9.452357,-1.058724
6308,-1.971612,9.465863,-0.913877
6309,-2.273429,9.475000,-0.821894
6310,-2.588604,9.455673,-0.786407
6311,-2.906826,9.392780,-0.764194
6312,-3.226367,9.291926,-0.730973
6313,-3.548610,9.187248,-0.705860
6314,-3.877545,9.100800,-0.699187
6315,-4.210119,9.025687,-0.699969
6316,-4.536876,8.950960,-0.699233
6317,-4.857533,8.866748,-0.696767
6318,-5.186257,8.774481,-0.684472
6319,-5.564539,8.640816,-0.713301
6320,-5.787397,8.872436,-0.382205
6321,1.024058,2.649309,-11.138929
6322,1.333012,2.853865,-10.917326
6323,1.651565,3.048189,-10.723729
6324,1.975706,3.225855,-10.574556
6325,2.373734,3.423119,-10.444061
6326,2.639414,3.568449,-10.157967
6327,2.645813,3.597500,-9.820376
6328,2.881327,3.735457,-9.422173
6329,2.952211,3.796483,-8.868213
6330,2.982640,3.831804,-8.464034
6331,3.133275,3.906720,-8.073811
6332,3.251341,3.959595,-7.543839
6333,3.445107,4.020059,-7.053779
6334,4.016794,4.150586,-6.730398
6335,3.606788,4.058673,-6.616468
6336,4.418526,4.256864,-6.947677
6337,4.691602,4.339974,-7.240397
6338,5.059367,4.445123,-7.575177
6339,5.415424,4.550015,-7.982929
6340,5.649707,4.625845,-8.392494
6341,-5.481109,8.318952,-1.142211
6342,-5.373743,8.101653,-1.524595
6343,-5.259777,7.926767,-1.943649
6344,-5.169818,7.764853,-2.408985
6345,-5.090827,7.615904,-2.881650
6346,-5.020507,7.474952,-3.350407
6347,-4.966209,7.337762,-3.811034
6348,-4.939476,7.203737,-4.251925
6349,-4.956125,7.102003,-4.644347
6350,-5.001724,7.055544,-4.885053
6351,-4.875068,7.007120,-4.923121
6352,-4.706408,7.047561,-4.889995
6353,-4.678381,7.120509,-5.036316
6354,-4.582614,7.066133,-5.073271
6355,-4.567304,6.941157,-4.955429
6356,-4.701800,6.743144,-4.831986
6357,-4.793552,6.489187,-4.695839
6358,-4.701450,6.187747,-4.577314
6359,-4.475380,5.890974,-4.509460
6360,-4.425027,5.439575,-4.944635
6361,-4.176439,5.643912,-4.476985
6362,6.017054,4.719662,-8.320932
6363,6.234007,4.773228,-7.900707
6364,6.404990,4.800382,-7.467524
6365,6.577084,4.795084,-6.999445
6366,6.769951,4.795161,-6.517306
6367,6.983504,4.887108,-6.079610
6368,7.183369,5.109703,-5.725380
6369,7.293551,5.379144,-5.449421
6370,7.493040,5.796657,-5.401870
6371,7.693677,6.168740,-5.588286
6372,7.799197,6.395265,-5.695694
6373,7.761019,6.523575,-5.402249
6374,7.763149,6.747492,-5.072376
6375,7.786514,7.028488,-4.733178
6376,8.006937,7.202783,-5.073015
6377,8.210175,7.348439,-5.424544
6378,10.464572,9.191162,-0.759715
6379,10.371326,9.176685,-0.982123
6380,10.175471,9.094888,-1.060848
6381,9.970757,8.896560,-1.291849
6382,9.741826,8.730671,-1.459777
6383,9.483429,8.601481,-1.666551
6384,9.207476,8.499396,-1.915704
6385,10.387293,8.994124,-1.225175
6386,10.276878,8.886186,-1.552879
6387,10.092642,8.780249,-1.718561
6388,9.895022,8.627795,-1.856467
6389,9.660879,8.486088,-2.085085
6390,9.389094,8.350351,-2.360902
6391,9.108595,8.189555,-2.698372
6392,8.838752,8.022447,-3.088664
6393,8.354083,8.128598,-3.118720
6394,8.599629,7.917849,-3.497057
6395,8.140258,8.428291,-2.789949
6396,7.976129,8.745388,-2.533700
6397,7.905718,8.945063,-2.372289
6398,7.835538,9.025158,-2.471736
6399,7.811833,9.096966,-2.617140
6400,7.652929,9.101655,-2.556945
6401,7.369269,8.980135,-2.458443
6402,7.069125,8.957639,-2.349707
6403,6.718311,8.763623,-2.365324
6404,6.277940,8.851945,-2.233694
6405,5.907839,8.895683,-2.169768
6406,5.563770,8.914668,-2.133066
6407,5.223011,8.918914,-2.113695
6408,4.829073,8.967725,-2.104973
6409,4.549496,8.639738,-2.174079
6410,4.275176,8.398136,-2.237729
6411,4.031429,8.109955,-2.319728
6412,3.543628,8.070454,-2.355997
6413,3.804258,7.756808,-2.431321
6414,3.278967,8.375895,-2.301361
6415,3.009631,8.709866,-2.258575
6416,2.718318,9.217974,-2.206982
6417,7.577551,6.295686,-5.149030
6418,7.523979,6.551574,-4.747054
6419,7.530137,6.871527,-4.400896
6420,7.806150,7.337301,-4.382761
6421,7.544321,7.193929,-4.075213
6422,8.027412,7.501707,-4.702291
6423,8.212471,7.608059,-5.021078
6424,8.373596,7.609459,-5.293318
6425,8.509257,7.512052,-5.474548
6426,-0.903832,9.190420,-1.635959
6427,-0.748318,8.960168,-1.824563
6428,8.623390,7.361625,-5.604091
6429,8.739683,7.348960,-5.396072
6430,8.991317,7.467142,-5.227908
6431,9.234647,7.559296,-5.269904
6432,9.265708,7.660508,-5.024880
6433,9.422713,7.820798,-4.659599
6434,9.676764,7.972036,-4.306998
6435,9.961904,8.104693,-3.964867
6436,2.214602,9.158425,-2.246761
6437,1.831013,9.176403,-2.257315
6438,1.473351,9.204153,-2.252465
6439,1.117740,9.217375,-2.236287
6440,0.769464,9.221175,-2.201905
6441,0.433390,9.216807,-2.143817
6442,0.112874,9.196171,-2.066647
6443,-0.182006,9.140578,-1.987968
6444,-0.427732,9.030751,-1.937323
6445,-0.595949,8.679685,-2.033753
6446,-0.832996,8.190111,-2.197089
6447,-1.011816,8.529390,-1.921278
6448,-1.173692,8.741209,-1.718316
6449,-1.291604,8.938108,-1.543184
6450,-1.552378,8.999421,-1.359041
6451,-1.858723,8.966526,-1.203092
6452,-2.127124,8.993583,-1.080516
6453,-2.412267,9.022332,-1.029475
6454,-2.700013,9.034692,-1.043029
6455,-2.983018,8.992764,-1.056548
6456,-3.265569,8.886112,-1.037443
6457,-3.563572,8.766543,-1.018906
6458,-3.888212,8.681643,-1.028876
6459,-4.222242,8.626906,-1.062668
6460,-4.550777,8.571245,-1.105956
6461,-4.908806,8.468762,-1.155117
6462,-5.230794,8.472437,-1.012877
6463,0.727382,2.483451,-10.863979
6464,1.013512,2.690603,-10.616314
6465,1.318756,2.894106,-10.393433
6466,1.617058,3.077590,-10.199466
6467,1.921769,3.246320,-10.030558
6468,2.280146,3.422390,-9.908365
6469,2.356733,3.496712,-9.480307
6470,2.504302,3.595231,-9.080444
6471,2.623330,3.674938,-8.662504
6472,2.752512,3.751497,-8.253661
6473,2.878693,3.818580,-7.829648
6474,2.938137,3.853656,-7.436282
6475,3.084872,3.919405,-6.979602
6476,3.291308,3.999730,-6.485384
6477,3.781058,4.108239,-6.174227
6478,3.436315,4.069787,-6.047816
6479,4.221770,4.181470,-6.233803
6480,4.549470,4.261783,-6.594706
6481,4.924859,4.371519,-6.911284
6482,5.293505,4.484543,-7.285565
6483,5.662509,4.601557,-7.732478
6484,7.216661,5.984405,-4.786365
6485,7.210156,6.399424,-4.373858
6486,7.227105,6.775543,-4.052729
6487,7.251811,7.129129,-3.766411
6488,7.544982,7.502495,-3.753867
6489,7.279246,7.445569,-3.511998
6490,7.804030,7.650978,-4.005487
6491,8.020929,7.803119,-4.279344
6492,8.189227,7.833591,-4.575225
6493,8.335449,7.733879,-4.851759
6494,8.461812,7.577331,-5.067966
6495,8.556742,7.437968,-5.250317
6496,8.649044,7.467290,-5.023707
6497,8.915772,7.615583,-4.730102
6498,9.142204,7.804828,-4.290244
6499,9.407867,7.982881,-3.921706
6500,9.689079,8.163534,-3.567933
6501,9.947088,8.335500,-3.189651
6502,10.134350,8.489684,-2.805999
6503,10.247526,8.624674,-2.443759
6504,10.283997,8.749073,-2.040194
6505,-3.035053,3.990469,-6.389888
6506,-2.723155,3.896241,-6.273130
6507,-2.358543,3.792124,-6.160310
6508,-1.966147,3.680937,-6.081058
6509,-1.568061,3.565890,-6.056976
6510,-1.733472,3.325710,-6.416691
6511,-1.920030,3.116811,-6.770361
6512,-2.122559,2.936508,-7.114165
6513,-2.330430,2.778024,-7.447049
6514,-2.530437,2.649639,-7.742793
6515,-2.672533,2.587974,-7.909789
6516,-2.566417,2.500128,-8.024275
6517,-2.431967,2.347334,-8.263184
6518,-1.925777,2.115978,-8.620994
6519,-1.738383,2.011579,-8.928914
6520,-1.642813,1.899318,-9.311435
6521,-1.564110,1.820441,-9.607377
6522,-1.530357,1.709454,-9.897436
6523,-1.417606,1.623189,-10.055551
6524,-1.162954,1.670823,-10.032206
6525,-0.756093,1.760387,-10.075897
6526,-0.339353,1.909819,-10.194900
6527,0.049609,2.100324,-10.376281
6528,0.403317,2.297418,-10.608447
6529,-4.459086,7.134072,-4.674470
6530,-4.487501,7.185567,-4.527377
6531,-5.164647,8.273603,-1.319392
6532,-4.946088,8.123982,-1.686606
6533,-4.871485,7.879712,-2.212772
6534,-4.802336,7.671369,-2.680383
6535,-4.727141,7.472033,-3.134719
6536,-4.669785,7.303532,-3.599410
6537,-4.668553,7.164721,-4.079086
6538,-4.733053,7.059140,-4.543966
6539,-4.258765,7.213949,-4.197052
6540,-4.329084,7.275827,-4.071339
6541,-4.383833,7.002764,-4.457975
6542,-4.182008,7.098346,-4.126074
6543,-4.065923,5.212807,-4.943206
6544,-3.667652,5.078277,-4.934037
6545,-3.275376,5.009036,-4.934320
6546,-2.867341,4.968097,-4.923521
6547,-3.041800,4.728496,-5.332307
6548,-3.182837,4.531530,-5.698557
6549,7.910202,8.767741,-2.780070
6550,7.932607,8.775865,-2.991090
6551,7.819676,8.736645,-2.992092
6552,7.527945,8.597444,-2.826503
6553,7.144859,8.455156,-2.687670
6554,6.748355,8.151895,-2.685298
6555,6.352756,8.323999,-2.451984
6556,5.974832,8.395175,-2.330898
6557,5.627441,8.427599,-2.266547
6558,5.341896,8.501480,-2.214889
6559,5.005366,8.426798,-2.220017
6560,4.696463,8.218538,-2.270908
6561,4.450162,8.047681,-2.321983
6562,4.250750,7.805110,-2.399225
6563,4.066984,7.464413,-2.520244
6564,3.861756,7.092744,-2.672861
6565,3.580148,7.373969,-2.573264
6566,3.302955,7.666275,-2.490377
6567,3.026726,7.946376,-2.428390
6568,2.756998,8.231045,-2.378521
6569,2.495340,8.623401,-2.319457
6570,2.076308,8.591925,-2.358609
6571,1.720007,8.627675,-2.370987
6572,1.369390,8.668981,-2.371911
6573,1.016764,8.697262,-2.364013
6574,0.670514,8.717276,-2.338483
6575,0.335656,8.732222,-2.288927
6576,0.021385,8.743294,-2.217256
6577,-0.270378,8.738362,-2.132047
6578,8.059150,8.454298,-3.120608
6579,8.028292,8.461537,-3.416774
6580,7.891011,8.368828,-3.403958
6581,7.673982,8.258065,-3.221519
6582,7.394570,8.078861,-3.095835
6583,7.082284,7.902148,-3.010465
6584,6.019353,7.931357,-2.517809
6585,6.371597,7.844664,-2.678202
6586,5.682436,7.965615,-2.429787
6587,5.325361,8.029561,-2.357312
6588,6.715304,7.687444,-2.932663
6589,7.013658,7.517906,-3.236315
6590,8.229333,8.141165,-3.527469
6591,8.164745,8.067753,-4.014368
6592,7.980039,8.114803,-3.807447
6593,7.761967,7.951298,-3.612582
6594,7.511092,7.790729,-3.435116
6595,7.286279,7.708967,-3.291730
6596,8.425781,7.868217,-3.932294
6597,8.338786,7.812906,-4.395938
6598,-1.312700,8.122477,-2.018934
6599,-1.212870,7.846474,-2.250061
6600,-1.435473,8.347389,-1.810541
6601,-1.534660,8.576734,-1.611171
6602,-1.797209,8.533898,-1.492691
6603,-2.040535,8.532094,-1.373749
6604,-2.306450,8.555732,-1.281920
6605,-2.581362,8.605546,-1.273377
6606,-2.835690,8.660935,-1.344290
6607,-3.067149,8.647751,-1.405200
6608,-3.297676,8.533240,-1.402131
6609,-3.571042,8.394797,-1.382073
6610,-3.892676,8.309120,-1.402897
6611,-4.226281,8.273112,-1.470140
6612,-4.563313,8.233668,-1.564636
6613,-4.562494,6.788329,-4.440011
6614,-4.574653,6.604061,-4.253596
6615,-4.479368,6.343406,-4.127883
6616,-4.250730,6.091666,-4.064413
6617,-3.954115,5.880794,-4.036762
6618,-3.839506,5.460094,-4.471241
6619,-3.633204,5.720760,-4.039438
6620,5.874594,4.650306,-7.411461
6621,6.064656,4.686580,-7.032219
6622,6.247700,4.709817,-6.597121
6623,6.440411,4.757863,-6.134184
6624,6.648848,4.890494,-5.691831
6625,6.854025,5.128613,-5.318595
6626,7.044360,5.477795,-5.048150
6627,8.511775,7.618664,-4.702577
6628,8.655565,7.697058,-4.302189
6629,8.866397,7.816445,-3.889952
6630,9.123803,7.969333,-3.504897
6631,9.872113,8.493742,-2.487120
6632,10.053665,8.635394,-2.195116
6633,10.135190,8.722366,-1.989022
6634,-1.087373,1.817292,-9.772651
6635,-0.621821,1.940711,-9.785627
6636,-0.157168,2.113128,-9.892980
6637,0.274344,2.310578,-10.084898
6638,0.661914,2.506898,-10.334930
6639,0.943628,2.713688,-10.086844
6640,1.227706,2.906538,-9.855593
6641,1.499047,3.079365,-9.629131
6642,1.841627,3.268890,-9.423754
6643,2.068767,3.403137,-9.123822
6644,2.143392,3.464886,-8.768242
6645,2.298979,3.557689,-8.396807
6646,2.462196,3.648232,-8.029808
6647,2.599167,3.722541,-7.651887
6648,2.716926,3.785874,-7.249498
6649,2.768920,3.831301,-6.863880
6650,2.911330,3.922846,-6.413092
6651,3.110783,4.045407,-5.938075
6652,3.564685,4.171128,-5.629151
6653,3.229769,4.171117,-5.526881
6654,4.025578,4.212092,-5.706790
6655,4.473691,4.248332,-5.909473
6656,4.765861,4.301101,-6.216256
6657,5.140631,4.405366,-6.567621
6658,5.514667,4.525808,-6.965640
6659,-3.482046,5.340394,-4.485429
6660,-3.113422,5.273930,-4.505210
6661,-2.729479,5.249841,-4.505619
6662,-2.421787,4.950424,-4.861319
6663,-2.319312,5.262959,-4.459225
6664,-2.574082,4.633213,-5.310484
6665,-2.865679,4.511936,-5.605983
6666,-3.243274,4.348084,-6.021925
6667,-2.911644,4.333458,-5.872948
6668,-3.262381,4.186619,-6.292216
6669,-2.960322,4.150900,-6.139616
6670,-2.624077,4.099171,-5.987914
6671,-2.242191,4.031246,-5.843570
6672,-1.832244,3.941678,-5.739154
6673,-1.421312,3.833930,-5.696248
6674,-1.021611,3.717045,-5.720199
6675,-1.173472,3.452143,-6.093052
6676,-1.343517,3.210797,-6.468121
6677,-1.542515,2.999027,-6.835024
6678,-1.767897,2.819642,-7.185902
6679,-2.011539,2.667265,-7.520489
6680,-2.277529,2.545058,-7.828315
6681,4.766266,7.801913,-2.398755
6682,4.525669,7.820211,-2.387500
6683,4.491021,7.573300,-2.475033
6684,4.350377,7.203062,-2.620218
6685,4.156191,6.830384,-2.787731
6686,3.953236,6.465676,-2.979852
6687,3.647358,6.720646,-2.851606
6688,3.353334,6.987469,-2.742655
6689,3.063420,7.258299,-2.652402
6690,2.781864,7.524242,-2.579501
6691,2.530905,7.786868,-2.516643
6692,2.303007,8.110637,-2.448588
6693,1.942970,8.077548,-2.488342
6694,1.607484,8.096903,-2.508174
6695,1.254906,8.137198,-2.516742
6696,0.901057,8.178796,-2.515087
6697,0.554021,8.214774,-2.496926
6698,0.218955,8.249585,-2.455213
6699,-0.096645,8.284972,-2.388099
6700,-0.415416,8.292980,-2.298741
6701,5.009678,7.988691,-2.342786
6702,4.827992,7.348771,-2.574530
6703,5.118305,7.640753,-2.474638
6704,4.645758,6.948815,-2.743645
6705,4.467355,6.583480,-2.924589
6706,4.276055,6.224620,-3.131523
6707,3.734788,6.112402,-3.197478
6708,4.060487,5.881329,-3.359906
6709,3.424217,6.355519,-3.057439
6710,3.121787,6.604932,-2.938578
6711,2.817913,6.851879,-2.841778
6712,2.515070,7.118982,-2.752150
6713,2.279451,7.427035,-2.654764
6714,2.160910,7.732505,-2.563933
6715,1.882671,7.611234,-2.628717
6716,1.518643,7.569209,-2.674924
6717,1.136565,7.604796,-2.692320
6718,0.775847,7.660475,-2.694219
6719,0.427733,7.713910,-2.681414
6720,0.094848,7.767734,-2.647613
6721,-0.221899,7.817906,-2.588955
6722,-0.541320,7.831306,-2.510691
6723,-0.860339,7.750442,-2.456921
6724,-1.152666,7.573581,-2.466356
6725,-1.422209,7.317046,-2.557833
6726,-1.553206,7.517922,-2.347173
6727,-1.652370,7.781110,-2.099390
6728,-1.702394,8.050019,-1.872477
6729,-1.934658,8.182583,-1.660838
6730,-2.203359,8.135428,-1.583221
6731,-2.495700,8.145383,-1.521751
6732,-2.765831,8.223399,-1.552306
6733,-2.981981,8.325235,-1.676927
6734,-3.152813,8.339480,-1.784496
6735,-3.335903,8.226246,-1.803724
6736,-3.595740,8.073895,-1.792082
6737,-3.909027,7.985341,-1.810331
6738,-4.226459,7.962162,-1.893739
6739,-4.550392,7.940905,-2.036203
6740,-2.564963,4.327757,-5.692108
6741,-2.157047,4.304108,-5.510865
6742,-1.709489,4.233302,-5.387395
6743,-1.278024,4.131437,-5.331096
6744,-0.867109,4.009563,-5.348780
6745,-0.460719,3.904939,-5.401415
6746,-0.613374,3.614550,-5.786859
6747,-0.775793,3.349766,-6.180195
6748,-0.953976,3.115417,-6.559837
6749,-1.151126,2.902833,-6.940214
6750,-1.406021,2.711299,-7.316059
6751,-1.710468,2.551824,-7.660617
6752,-2.029586,2.423798,-7.979162
6753,-2.059365,4.614304,-5.138239
6754,-1.572655,4.568077,-5.007118
6755,-1.107861,4.471229,-4.947396
6756,-0.687837,4.336265,-4.972773
6757,-0.294040,4.218571,-5.031245
6758,-0.091263,3.879214,-5.401105
6759,0.103199,4.132375,-5.094217
6760,-0.165484,3.610228,-5.767365
6761,-0.300423,3.297092,-6.267752
6762,-0.557804,3.044248,-6.695145
6763,-0.783625,2.872416,-6.997083
6764,-0.931788,2.648639,-7.467740
6765,-1.383734,2.448027,-7.862606
6766,-1.784838,2.305114,-8.178380
6767,-1.229526,2.151177,-8.652331
6768,-1.524005,2.204524,-8.424261
6769,-1.044316,2.068630,-9.060898
6770,-1.061373,1.933457,-9.478020
6771,-4.295120,6.944244,-4.057863
6772,-4.345134,6.748474,-3.831601
6773,-4.257946,6.532245,-3.706926
6774,-4.031006,6.319505,-3.641312
6775,-3.738321,6.134794,-3.617679
6776,-3.432114,5.992113,-3.631747
6777,-3.303122,5.611948,-4.065847
6778,-3.123382,5.895423,-3.669521
6779,0.524897,2.515734,-9.804538
6780,0.801578,2.716621,-9.535242
6781,1.072882,2.902281,-9.266088
6782,1.351554,3.076057,-9.016488
6783,1.695017,3.257997,-8.843143
6784,1.787281,3.335147,-8.419034
6785,1.984751,3.449472,-8.074314
6786,2.187837,3.558237,-7.772730
6787,2.344365,3.642418,-7.467011
6788,2.449487,3.709953,-7.106450
6789,2.535768,3.782248,-6.699583
6790,2.570648,3.854199,-6.327615
6791,2.737184,3.977376,-5.956445
6792,2.856275,4.150593,-5.486435
6793,3.308055,4.333360,-5.142592
6794,2.987138,4.332593,-5.103903
6795,3.686754,4.339546,-5.196084
6796,4.160479,4.405034,-5.176863
6797,4.567457,4.353284,-5.528908
6798,4.972593,4.386533,-5.844863
6799,5.352450,4.465678,-6.198539
6800,5.718033,4.570370,-6.600447
6801,5.908263,4.630269,-6.191391
6802,6.096237,4.731475,-5.755239
6803,6.289539,4.903560,-5.323243
6804,6.484468,5.163729,-4.937703
6805,6.662767,5.517401,-4.611315
6806,6.781390,5.925200,-4.297382
6807,6.839470,6.342361,-3.983957
6808,6.878112,6.762239,-3.692934
6809,6.937094,7.161224,-3.443688
6810,-0.505160,2.104326,-9.446248
6811,0.046174,2.309936,-9.563780
6812,-4.501598,7.685787,-2.479477
6813,-4.432919,7.470340,-2.898916
6814,-4.378694,7.319594,-3.332611
6815,-4.384730,7.239153,-3.816859
6816,1.917953,7.090447,-2.816280
6817,1.404541,7.026295,-2.887877
6818,0.992721,7.066236,-2.909668
6819,0.621042,7.150907,-2.905115
6820,0.269059,7.224257,-2.894445
6821,-0.070019,7.289770,-2.870000
6822,-0.375012,7.372146,-2.808295
6823,-0.657296,7.414826,-2.735374
6824,-0.923179,7.405191,-2.670451
6825,-1.141065,7.354479,-2.633357
6826,-1.323775,7.162987,-2.717461
6827,-1.486248,6.890538,-2.894716
6828,-1.681977,6.998500,-2.733285
6829,-1.875714,7.147006,-2.534979
6830,-2.065510,7.436982,-2.211581
6831,-4.206019,7.696632,-2.290814
6832,-4.148430,7.509150,-2.658870
6833,-4.112242,7.413009,-3.041548
6834,-4.142719,7.385596,-3.422845
6835,-4.184636,7.402650,-3.691950
6836,-4.139700,7.365158,-3.805391
6837,-4.100091,7.197679,-3.863407
6838,-4.109782,7.089060,-3.641887
6839,-4.130801,6.936734,-3.455923
6840,-4.036409,6.762815,-3.320595
6841,-3.812879,6.577062,-3.238651
6842,-3.526442,6.409172,-3.215537
6843,-3.224710,6.280934,-3.241711
6844,-2.867535,6.221019,-3.270539
6845,-2.814832,5.839778,-3.719877
6846,-2.572400,6.114873,-3.411245
6847,-2.967873,5.551814,-4.098814
6848,-2.621617,5.540039,-4.113500
6849,-2.252853,5.575075,-4.085168
6850,-1.872363,5.314388,-4.350110
6851,-1.854677,5.660437,-3.996730
6852,-1.939856,4.956200,-4.737286
6853,0.327667,2.521031,-9.230622
6854,0.642393,2.729528,-8.922164
6855,0.942786,2.920093,-8.638315
6856,1.309613,3.116057,-8.455060
6857,1.450515,3.225351,-8.022240
6858,1.709523,3.385347,-7.619109
6859,2.038139,3.529552,-7.486829
6860,2.158281,3.597590,-7.264295
6861,2.228355,3.655328,-6.971336
6862,2.234762,3.717727,-6.604166
6863,2.324960,3.845123,-6.146603
6864,2.449031,4.011631,-5.706639
6865,2.527869,4.177801,-5.340635
6866,2.711572,4.305672,-5.117070
6867,3.022163,4.544866,-4.744453
6868,2.678913,4.497354,-4.795710
6869,3.406958,4.577725,-4.716530
6870,3.843109,4.576461,-4.763760
6871,4.272536,4.635584,-4.754050
6872,4.740581,4.585331,-5.035514
6873,5.157613,4.533289,-5.448921
6874,5.547528,4.566997,-5.806719
6875,6.343163,7.438506,-2.875987
6876,6.636333,7.294933,-3.128057
6877,6.028611,7.516479,-2.709104
6878,5.717607,7.555454,-2.605153
6879,5.422865,7.587421,-2.534170
6880,-2.686563,7.752724,-1.807441
6881,-2.353490,7.738218,-1.850045
6882,-2.954068,7.865411,-1.859948
6883,-3.139194,8.001046,-2.015783
6884,-3.266117,8.042958,-2.171276
6885,-3.423321,7.957329,-2.234512
6886,-3.695068,7.777238,-2.255449
6887,-3.962479,7.747318,-2.139562
6888,-0.283899,2.319040,-8.951649
6889,-0.762845,2.260778,-8.599416
6890,5.731552,4.717203,-5.397203
6891,5.910148,4.924436,-4.986056
6892,6.083548,5.196750,-4.599615
6893,6.241325,5.534508,-4.253326
6894,6.362376,5.925425,-3.939354
6895,6.437839,6.355844,-3.641495
6896,6.473639,6.835884,-3.327992
6897,-3.932924,7.592349,-2.426551
6898,-3.833944,7.578387,-2.751896
6899,-3.928991,7.531598,-3.160767
6900,-4.024233,7.501247,-3.440303
6901,-4.082180,7.468837,-3.598882
6902,-3.998756,7.383679,-3.540834
6903,-3.940729,7.286321,-3.339907
6904,-3.914552,7.175988,-3.152209
6905,-3.806285,7.035480,-2.979350
6906,-3.592534,6.865334,-2.862932
6907,-3.315064,6.706035,-2.832991
6908,-3.003933,6.595648,-2.866515
6909,-2.633061,6.606401,-2.864436
6910,-2.431441,6.430487,-3.085087
6911,-2.188503,6.361152,-3.214124
6912,-2.307274,6.090814,-3.486157
6913,-2.505020,5.830390,-3.757828
6914,6.300716,7.106540,-3.043411
6915,6.019783,7.143625,-2.898608
6916,5.714345,7.186926,-2.781739
6917,5.426782,7.243765,-2.688640
6918,5.193808,7.336828,-2.607617
6919,5.081376,7.061765,-2.724733
6920,4.948952,6.720918,-2.887177
6921,4.798997,6.360299,-3.084261
6922,4.620649,6.000009,-3.311325
6923,4.406175,5.656565,-3.560237
6924,3.836283,5.567045,-3.598274
6925,4.146120,5.359628,-3.800342
6926,3.513646,5.767970,-3.444150
6927,3.191032,5.991549,-3.299094
6928,2.885509,6.230199,-3.162229
6929,2.574476,6.444857,-3.061212
6930,2.251062,6.684667,-2.965175
6931,-1.113768,7.068116,-2.862643
6932,-1.337768,6.688825,-3.112097
6933,-1.578567,6.356031,-3.357147
6934,-1.734929,6.568506,-3.120101
6935,-1.945717,6.670466,-2.958653
6936,-2.169948,6.770565,-2.794882
6937,-2.887406,7.377671,-2.129556
6938,-2.541191,7.328288,-2.168836
6939,-3.154215,7.518315,-2.181170
6940,-3.331213,7.671621,-2.350322
6941,-3.454192,7.751156,-2.590750
6942,-3.565083,7.762003,-2.660396
6943,0.192818,2.581045,-8.584769
6944,0.554512,2.790257,-8.287276
6945,0.944578,2.997331,-8.073613
6946,1.102986,3.137631,-7.617704
6947,1.306996,3.311529,-7.151267
6948,1.874616,3.535987,-7.038377
6949,1.910848,3.685598,-6.400815
6950,2.011850,3.874296,-5.889109
6951,2.154157,4.106955,-5.412670
6952,2.373321,4.343087,-5.016103
6953,2.706709,4.832095,-4.356568
6954,2.238896,4.676994,-4.532239
6955,3.147057,4.808377,-4.381790
6956,3.432682,4.824155,-4.357340
6957,3.657175,4.763181,-4.450028
6958,4.045648,4.868819,-4.355042
6959,5.357392,4.732648,-5.055563
6960,5.080054,4.810598,-4.738539
6961,-2.182707,5.875429,-3.749239
6962,-1.815503,6.018075,-3.642176
6963,-1.451057,5.774267,-3.877755
6964,-1.408862,6.075459,-3.621104
6965,-1.410920,5.445822,-4.162651
6966,-1.374863,4.990226,-4.557782
6967,5.536274,4.966524,-4.680560
6968,5.683383,5.246362,-4.314323
6969,5.824742,5.583155,-3.974465
6970,5.945032,5.970268,-3.666440
6971,6.025011,6.390020,-3.381290
6972,6.033375,6.785367,-3.118222
6973,-0.299673,2.492836,-8.221796
6974,-3.723531,7.641858,-3.007254
6975,-3.867622,7.524782,-3.270255
6976,-3.762366,7.498140,-3.109918
6977,-2.773384,6.941074,-2.509835
6978,-3.100454,7.027927,-2.472088
6979,-2.364842,6.983773,-2.535070
6980,-1.974285,6.266565,-3.365453
6981,5.687493,6.823947,-2.972997
6982,5.368427,6.911205,-2.848140
6983,5.278528,6.552506,-3.037190
6984,5.155650,6.177733,-3.260907
6985,4.993414,5.802599,-3.521556
6986,4.787093,5.416453,-3.840711
6987,4.395374,5.124889,-4.083561
6988,3.879130,5.118249,-4.024771
6989,3.609875,5.285639,-3.846182
6990,3.379662,5.469296,-3.686574
6991,2.965402,5.575024,-3.622746
6992,2.650523,5.857967,-3.418921
6993,2.342869,6.049229,-3.306009
6994,2.022670,6.230412,-3.217516
6995,1.705713,6.537381,-3.080774
6996,1.234356,6.487701,-3.147889
6997,0.756387,6.502331,-3.191637
6998,0.404829,6.750762,-3.104392
6999,-0.008263,6.701355,-3.168598
7000,-0.348281,6.892062,-3.082171
7001,-0.564224,7.047274,-2.981324
7002,-0.817997,7.043743,-2.948187
7003,4.647146,4.866934,-4.491711
7004,-1.027573,6.692553,-3.166013
7005,-1.250088,6.372297,-3.389086
7006,-3.370236,7.181381,-2.513031
7007,-3.595431,7.675337,-2.902338
7008,-0.850549,4.821736,-4.566309
7009,-0.473889,4.675904,-4.610358
7010,-0.108937,4.558838,-4.665772
7011,0.266023,4.467404,-4.719396
7012,0.469971,4.128428,-5.084005
7013,0.660251,4.413068,-4.757259
7014,0.330397,3.808687,-5.501990
7015,0.215482,3.485083,-5.998751
7016,0.163598,3.235910,-6.470643
7017,-0.131422,3.018108,-6.848305
7018,-0.398316,2.793468,-7.267673
7019,-0.514122,2.587175,-7.748508
7020,0.179079,2.706367,-7.961212
7021,0.578067,2.908173,-7.729200
7022,0.714886,3.075596,-7.257767
7023,1.451561,3.499468,-6.607762
7024,1.561769,3.711848,-6.062183
7025,1.657755,3.993642,-5.488269
7026,1.886205,4.371240,-4.916174
7027,1.834674,4.725522,-4.443091
7028,5.171709,5.032953,-4.408347
7029,5.285905,5.319912,-4.069140
7030,5.402972,5.663997,-3.743148
7031,5.539037,6.049255,-3.450787
7032,5.634755,6.443101,-3.195070
7033,-1.002345,5.657188,-3.932282
7034,-1.096037,5.909149,-3.748114
7035,-0.859524,5.318384,-4.169662
7036,-0.553832,5.083761,-4.281630
7037,-0.239967,5.024067,-4.271925
7038,0.083073,4.906618,-4.322169
7039,0.421207,4.813347,-4.370098
7040,0.784354,4.771162,-4.384920
7041,1.072352,4.449648,-4.713395
7042,1.107345,4.790657,-4.351326
7043,0.885936,4.070046,-5.179584
7044,0.771330,3.734966,-5.674593
7045,0.637052,3.475067,-6.131482
7046,0.574353,3.284397,-6.533326
7047,0.349141,3.088982,-6.903312
7048,0.152898,2.869193,-7.380489
7049,-0.141500,2.679327,-7.702487
7050,-0.706178,6.698497,-3.190118
7051,-0.935531,6.363394,-3.410649
7052,-0.788260,6.119386,-3.572964
7053,-0.655563,5.890393,-3.714581
7054,-0.590100,5.653863,-3.869034
7055,-0.340925,5.467929,-3.955714
7056,0.036113,5.375636,-3.956046
7057,0.262891,5.160240,-4.083422
7058,0.541252,5.154398,-4.062457
7059,0.882837,5.138077,-4.051541
7060,1.295866,5.127803,-4.041751
7061,1.471713,4.644523,-4.517964
7062,1.637882,4.972172,-4.174440
7063,1.402769,4.234721,-5.021477
7064,1.228951,3.954861,-5.407098
7065,1.179235,3.731860,-5.811363
7066,1.051928,3.491572,-6.300538
7067,0.900191,3.274677,-6.791815
7068,1.943637,5.022346,-4.135243
7069,2.289458,5.057059,-4.105014
7070,2.611743,5.230362,-3.934689
7071,3.097359,5.162702,-3.988231
7072,3.447000,5.027666,-4.113124
7073,3.677412,4.941841,-4.214838
7074,4.857222,5.131176,-4.171041
7075,2.435179,5.509416,-3.690117
7076,2.148927,5.671382,-3.572926
7077,1.828884,5.806846,-3.490614
7078,1.518692,6.050110,-3.357209
7079,1.072857,5.983294,-3.437228
7080,0.649303,5.913410,-3.522650
7081,0.263248,6.223144,-3.392921
7082,-0.272272,6.152747,-3.497854
7083,-0.509986,6.453621,-3.341178
7084,-0.328585,5.824645,-3.708225
7085,-0.041580,5.810953,-3.674863
7086,0.291661,5.719786,-3.683447
7087,0.330387,5.412528,-3.882162
7088,0.601625,5.498400,-3.795381
7089,0.968563,5.532325,-3.741037
7090,1.375587,5.605667,-3.656675
7091,1.723876,5.361621,-3.828723
7092,2.097594,5.333083,-3.844707
7093,2.318754,5.288415,-3.878458
7094,-2.659187,2.166337,-8.738423
7095,-2.172042,2.204270,-8.464488
7096,-4.521670,7.126026,-4.351996
7097,10.481596,9.049128,-0.979507
7098,-3.281315,4.061734,-6.497575
7099,9.648440,8.332337,-2.799594
7100,9.394708,8.150394,-3.141149
7101,-0.949365,2.379478,-8.137185
7102,-2.111817,6.074459,-3.541602
7103,-2.007525,7.846058,-1.885833
7104,-1.136234,6.125181,-3.586774
7105,-3.562792,7.343683,-2.670017
7106,-3.682792,7.448389,-2.901002
7107,-1.717164,8.277287,-1.703633
7108,-5.774484,4.752160,-7.384526
7109,-5.688905,4.671364,-7.894183
7110,-5.715983,4.791947,-6.884175
7111,-5.786613,4.392323,-6.993357
7112,-5.768554,4.327253,-7.626066
7113,-5.672071,4.353663,-7.973378
7114,-5.671852,4.050778,-8.023364
7115,-5.434734,4.195580,-8.133900
7116,-5.176253,3.705487,-8.298714
7117,-5.483120,3.750766,-8.238679
7118,-5.320630,3.202841,-8.380073
7119,-4.935779,3.232314,-8.487893
7120,-5.059221,2.712890,-8.682928
7121,-4.732681,2.809372,-8.768439
7122,-4.593681,2.462873,-9.153652
7123,-4.914185,2.357630,-9.042227
7124,-4.854980,2.100671,-9.479541
7125,-4.541518,2.201472,-9.624175
7126,-4.841113,1.898088,-9.942657
7127,-4.569662,1.986541,-10.106230
7128,-4.822606,1.684733,-10.377599
7129,-4.644567,1.756722,-10.517702
7130,-4.735164,1.509360,-10.861912
7131,-5.039185,1.336664,-10.529580
7132,-4.823823,1.273510,-11.189194
7133,-5.092741,1.095708,-10.848580
7134,-4.914897,1.019183,-11.482327
7135,-5.215221,0.877787,-11.158085
7136,-5.297194,0.654440,-11.489371
7137,-5.056970,0.743928,-11.713567
7138,-5.674596,0.307257,-11.532556
7139,-5.288277,0.499507,-11.918686
7140,-5.803837,0.146923,-11.954135
7141,-5.577064,0.299202,-12.161230
7142,-5.850962,0.163569,-12.456144
7143,-6.082447,0.056354,-12.144712
7144,-6.065140,0.195976,-12.724606
7145,-6.234407,0.212316,-12.412630
7146,-6.248888,0.416642,-12.844572
7147,-6.421107,0.501091,-12.534324
7148,-6.587479,0.788257,-12.449318
7149,-6.437534,0.661276,-12.746396
7150,-6.527644,0.465333,-12.110592
7151,-6.668454,0.790199,-12.060552
7152,-6.596500,0.323298,-11.676090
7153,-6.738149,0.741772,-11.678403
7154,-6.645592,0.185750,-11.279045
7155,-6.879846,0.717957,-11.346483
7156,-6.923976,0.348229,-10.948150
7157,-7.133078,0.728216,-11.072125
7158,-7.288310,0.458436,-10.633936
7159,-7.458102,0.717716,-10.811750
7160,-7.783033,0.659855,-10.507536
7161,-7.525832,0.435670,-10.249377
7162,-7.793398,0.509228,-9.978747
7163,-8.064838,0.645335,-10.169333
7164,-8.038833,0.629051,-9.636465
7165,-8.289931,0.804401,-9.874604
7166,-8.509199,1.119915,-9.696356
7167,-8.273629,0.886907,-9.349124
7168,-8.631724,1.256639,-9.114257
7169,-8.821517,1.410680,-9.625451
7170,-9.167172,1.534159,-9.155579
7171,-9.233091,1.556642,-9.544735
7172,-9.642303,1.644012,-9.338824
7173,-9.587336,1.663202,-8.997533
7174,-9.981473,1.812873,-9.043678
7175,-9.820447,1.791700,-8.712947
7176,-10.240354,2.014356,-8.798919
7177,-10.080676,1.938904,-8.479880
7178,-10.227659,1.965943,-8.279144
7179,-10.356307,2.056799,-8.717112
7180,-8.820845,9.195007,1.997632
7181,-8.557198,8.841592,1.710469
7182,-8.320559,8.504226,1.388215
7183,-8.060534,8.193947,0.964292
7184,-7.874788,7.835345,0.492605
7185,-7.709009,7.585896,0.034781
7186,-7.571516,7.364684,-0.441124
7187,-7.440509,7.157562,-0.932010
7188,-7.289178,7.015167,-1.362432
7189,-7.179888,6.783818,-1.738697
7190,-7.014459,6.562562,-2.200364
7191,-6.848012,6.361306,-2.664535
7192,-6.681489,6.162000,-3.127408
7193,-6.505246,5.955728,-3.582141
7194,-6.326214,5.752322,-4.036053
7195,-6.153939,5.560087,-4.495571
7196,-5.966297,5.355822,-4.938636
7197,-5.782656,5.140413,-5.376465
7198,-5.676837,4.960440,-5.859538
7199,-5.664262,4.850269,-6.378668
7200,-10.204751,1.811626,-8.482103
7201,-10.250009,1.881281,-8.792997
7202,-9.846949,1.567754,-8.591859
7203,-9.983400,1.646014,-8.935219
7204,-9.439776,1.475159,-8.648782
7205,-9.705648,1.497085,-9.118023
7206,-9.256013,1.402988,-9.014353
7207,-9.460491,1.460871,-9.376342
7208,-9.041796,1.313727,-9.327282
7209,-9.165752,1.522065,-9.686456
7210,-8.767321,1.603942,-9.985522
7211,-8.731319,1.215658,-9.698990
7212,-8.364410,1.264817,-10.205439
7213,-8.316624,1.574164,-10.252781
7214,-8.066142,1.070298,-10.530989
7215,-7.886787,1.406035,-10.504427
7216,-7.744874,0.966316,-10.744602
7217,-7.493863,1.202335,-10.761728
7218,-7.142529,1.043541,-11.049027
7219,-7.373053,0.790759,-10.977325
7220,-7.005494,0.604573,-11.302898
7221,-6.901143,0.928807,-11.407840
7222,-6.790477,0.828417,-11.836267
7223,-6.771457,0.556712,-11.713654
7224,-6.649736,0.472566,-12.048211
7225,-6.687160,0.714627,-12.265910
7226,-6.485802,0.579644,-12.653607
7227,-6.498857,0.330745,-12.349846
7228,-6.358378,0.173227,-12.666845
7229,-6.283023,0.432608,-13.024248
7230,-6.239387,0.271981,-13.376614
7231,-6.342222,0.012615,-12.982032
7232,-6.461619,-0.151363,-13.261443
7233,-6.357007,0.088551,-13.655313
7234,-6.632378,-0.306542,-13.489214
7235,-6.564620,-0.104135,-13.853336
7236,-6.826080,-0.293058,-13.984538
7237,-6.840185,-0.429478,-13.719666
7238,-7.117587,-0.477829,-14.030921
7239,-7.102951,-0.666854,-13.650622
7240,-7.411846,-0.925278,-13.597300
7241,-7.414936,-0.658126,-14.003771
7242,-7.706466,-0.853977,-13.951203
7243,-7.697241,-1.074997,-13.717992
7244,-7.986135,-1.107208,-13.900786
7245,-7.819276,-1.215843,-13.681398
7246,-8.211351,-1.435449,-13.849847
7247,-7.965361,-1.385542,-13.615984
7248,-8.284362,-1.820558,-13.807715
7249,-8.134948,-1.685351,-13.513026
7250,-8.166363,-2.235018,-13.772197
7251,-8.169483,-2.045961,-13.452038
7252,-8.035093,-2.465577,-13.428421
7253,-7.960877,-2.621606,-13.660828
7254,-7.944170,-2.685609,-13.077498
7255,-7.780478,-2.917498,-13.401327
7256,-7.905854,-2.877468,-12.710012
7257,-7.662346,-3.120000,-13.028475
7258,-7.634197,-3.292441,-12.636135
7259,-7.921789,-3.065049,-12.352290
7260,-7.727688,-3.500906,-12.297752
7261,-7.997252,-3.271708,-12.038740
7262,-7.889647,-3.730405,-11.994759
7263,-8.087209,-3.469479,-11.748250
7264,-8.024109,-3.911487,-11.637527
7265,-8.162420,-3.620442,-11.417414
7266,-8.153223,-4.021868,-11.201033
7267,-8.260647,-3.721807,-11.072569
7268,-8.364041,-4.073175,-10.748004
7269,-8.399955,-3.705408,-10.801334
7270,-8.683050,-4.048144,-10.357915
7271,-8.656532,-3.747433,-10.431324
7272,-9.066686,-3.924303,-10.049947
7273,-8.997170,-3.600389,-10.036288
7274,-9.430144,-3.732988,-9.748708
7275,-9.261975,-3.477523,-9.647249
7276,-9.722481,-3.553220,-9.376047
7277,-9.465079,-3.385293,-9.152238
7278,-9.951824,-3.448742,-8.928791
7279,-9.735495,-3.403754,-8.637538
7280,-9.948739,-3.468091,-8.242730
7281,-10.139579,-3.449725,-8.452217
7282,-10.301230,-3.578622,-7.980858
7283,-10.042931,-3.583696,-7.834397
7284,-10.212442,-3.777793,-7.359935
7285,-10.454794,-3.811402,-7.520535
7286,-10.382020,-4.005083,-6.897797
7287,-10.612219,-4.087247,-7.076223
7288,-10.568797,-4.271340,-6.457034
7289,-10.779817,-4.376629,-6.667032
7290,-10.794696,-4.559259,-6.065189
7291,-10.979122,-4.664078,-6.303674
7292,-11.044922,-4.857488,-5.724719
7293,-11.233134,-4.943990,-5.985587
7294,-11.296252,-5.216889,-5.420864
7295,-11.517046,-5.261524,-5.729954
7296,-11.522565,-5.676320,-5.131995
7297,-11.760214,-5.671294,-5.569759
7298,-11.822467,-6.193586,-5.251130
7299,-11.886628,-6.175637,-5.492851
7300,-14.434621,-8.040469,1.025748
7301,-14.017389,-7.757576,0.561762
7302,-14.582022,-7.650018,1.090077
7303,-14.258069,-7.446208,0.805560
7304,-14.711509,-7.251905,1.150413
7305,-14.236640,-7.012437,0.839486
7306,-14.823492,-6.849425,1.207958
7307,-14.412139,-6.683602,1.009125
7308,-14.374295,-6.247934,1.064772
7309,-14.918193,-6.443327,1.262651
7310,-14.996738,-6.033771,1.315084
7311,-14.622873,-5.958338,1.202063
7312,-14.422233,-5.510498,1.192375
7313,-15.058612,-5.622705,1.364300
7314,-15.105217,-5.210175,1.411290
7315,-14.730344,-5.151477,1.326590
7316,-14.571165,-4.655060,1.335043
7317,-15.141572,-4.791569,1.460643
7318,-15.172525,-4.362434,1.516782
7319,-14.739772,-4.230023,1.431596
7320,-15.189817,-3.932766,1.571143
7321,-14.665486,-3.881335,1.448645
7322,-14.646515,-3.476272,1.484517
7323,-15.185214,-3.512543,1.615221
7324,-15.163900,-3.097356,1.653859
7325,-14.643329,-3.070406,1.525304
7326,-14.621573,-2.666050,1.560305
7327,-15.131282,-2.682571,1.692152
7328,-15.088355,-2.267701,1.730839
7329,-14.582436,-2.261604,1.590337
7330,-14.532674,-1.857771,1.619531
7331,-15.034429,-1.854263,1.769032
7332,-14.969928,-1.442179,1.806964
7333,-14.473531,-1.454728,1.647352
7334,-14.405850,-1.051683,1.670165
7335,-14.895054,-1.032037,1.844689
7336,-14.810265,-0.623573,1.882548
7337,-14.332295,-0.648022,1.685011
7338,-14.254179,-0.244425,1.691753
7339,-14.715712,-0.217434,1.920660
7340,-14.611749,0.186636,1.959313
7341,-14.171778,0.157321,1.693038
7342,-14.082817,0.555026,1.694219
7343,-14.498529,0.587993,1.998540
7344,-14.376191,0.986904,2.038133
7345,-13.984021,0.947138,1.701043
7346,-13.873182,1.332370,1.719625
7347,-14.244834,1.382746,2.077780
7348,-14.104476,1.775795,2.117010
7349,-13.753451,1.709597,1.755953
7350,-13.606520,2.077143,1.791256
7351,-13.955255,2.165456,2.155544
7352,-13.797116,2.552000,2.192869
7353,-13.349289,2.404895,1.745515
7354,-13.284976,2.845159,1.944505
7355,-13.630239,2.934830,2.228763
7356,-13.454483,3.314187,2.262650
7357,-12.981971,3.172366,1.922182
7358,-12.869985,3.486380,2.018486
7359,-13.270076,3.689477,2.294333
7360,-13.076812,4.060904,2.323173
7361,-12.678067,3.841530,2.076413
7362,-12.486619,4.260783,2.143668
7363,-12.874947,4.427862,2.348982
7364,-12.664225,4.790501,2.371051
7365,-12.164431,4.562871,2.121073
7366,-12.142020,4.949200,2.231482
7367,-12.444930,5.148202,2.389188
7368,-12.216773,5.501035,2.402618
7369,-11.702167,5.149243,2.133339
7370,-11.674738,5.632792,2.258501
7371,-11.980104,5.848346,2.411136
7372,-11.734605,6.190118,2.413900
7373,-11.221173,5.813724,2.143420
7374,-11.177489,6.298042,2.253719
7375,-11.480673,6.525676,2.410659
7376,-11.217983,6.854905,2.400498
7377,-10.806915,6.440279,2.153572
7378,-10.629199,6.845679,2.183388
7379,-10.947018,7.177088,2.383131
7380,-10.667493,7.491980,2.357610
7381,-10.287030,7.154987,2.122677
7382,-10.006914,7.452059,2.075010
7383,-10.380003,7.798807,2.323629
7384,-10.084501,8.097186,2.280322
7385,-9.727442,7.745741,2.019057
7386,-9.441255,8.032242,1.952745
7387,-9.782239,8.386212,2.227666
7388,-9.472299,8.665452,2.164318
7389,-9.150235,8.310145,1.877584
7390,-8.855628,8.581746,1.797323
7391,-9.151627,8.934946,2.087857
7392,-11.723573,-6.181577,-4.818847
7393,-11.808812,-6.329920,-4.380133
7394,-11.898284,-6.410629,-3.980399
7395,-11.983719,-6.500892,-3.572847
7396,-12.065350,-6.609887,-3.154598
7397,-12.152101,-6.725700,-2.735435
7398,-12.257495,-6.829633,-2.308293
7399,-12.404167,-6.918946,-1.867465
7400,-12.621184,-7.057417,-1.389531
7401,-12.929507,-7.150045,-0.870884
7402,-13.240595,-7.314259,-0.439738
7403,-13.515405,-7.518325,-0.083203
7404,-13.748182,-7.537129,0.201680
7405,-5.770476,3.866619,-7.701428
7406,-5.631632,3.539963,-8.052514
7407,-5.545783,2.930961,-8.118082
7408,-5.337435,2.556382,-8.544535
7409,-5.199289,2.210651,-8.946580
7410,-5.139915,1.963940,-9.379748
7411,-5.113426,1.789155,-9.808765
7412,-5.075050,1.591323,-10.188640
7413,-5.281227,1.256821,-10.261858
7414,-5.337258,0.981123,-10.509414
7415,-5.485879,0.746704,-10.771141
7416,-5.618727,0.517528,-11.110528
7417,-5.991122,0.188999,-11.118445
7418,-6.054912,0.042353,-11.575590
7419,-6.136078,0.002355,-11.881144
7420,-6.343705,0.110492,-11.988237
7421,-6.374801,0.032788,-11.627707
7422,-6.347354,0.027790,-11.196004
7423,-6.631867,0.110766,-10.812159
7424,-6.922113,0.234111,-10.488975
7425,-7.191549,0.346741,-10.153816
7426,-7.454887,0.446387,-9.796753
7427,-7.706386,0.562649,-9.450655
7428,-7.922440,0.736157,-9.118082
7429,-8.206702,0.999958,-8.841919
7430,-8.951765,1.475815,-8.635545
7431,-9.376379,1.624799,-8.673372
7432,-9.639777,1.721508,-8.337423
7433,-9.901268,1.835770,-8.110197
7434,-10.070507,1.888056,-7.921178
7435,-10.237107,1.796292,-7.931267
7436,-9.620666,1.491789,-8.188658
7437,-9.200239,1.434703,-8.243481
7438,-9.034647,1.356505,-8.612324
7439,-8.868508,1.205829,-8.898004
7440,-8.692045,1.017201,-9.170288
7441,-8.011351,0.778247,-10.560420
7442,-8.277184,0.887240,-10.283016
7443,-7.664051,0.629932,-10.750736
7444,-7.291164,0.469045,-10.959724
7445,-6.987092,0.310113,-11.180749
7446,-6.734834,0.256944,-11.579765
7447,-6.650670,0.336001,-11.885056
7448,-6.536970,0.123069,-11.992205
7449,-6.440147,-0.067187,-12.327615
7450,-6.475050,-0.232546,-12.634817
7451,-6.600703,-0.378814,-12.923196
7452,-6.754602,-0.508522,-13.179907
7453,-6.871901,-0.576427,-13.414991
7454,-7.081871,-0.796754,-13.230679
7455,-7.389777,-1.081786,-13.188586
7456,-7.672672,-1.250781,-13.432423
7457,-7.899987,-1.553532,-13.226297
7458,-8.065973,-1.866559,-13.101363
7459,-8.096461,-2.246143,-13.071909
7460,-8.094168,-2.453128,-12.724294
7461,-8.121280,-2.648353,-12.399993
7462,-8.144873,-2.826491,-12.065611
7463,-8.177523,-3.010791,-11.758143
7464,-8.220487,-3.182519,-11.464494
7465,-8.303683,-3.350585,-11.119309
7466,-8.341850,-3.548002,-10.971841
7467,-8.463119,-3.455344,-10.753774
7468,-8.667670,-3.367952,-10.363301
7469,-8.878110,-3.300262,-9.946102
7470,-9.056645,-3.246410,-9.510721
7471,-9.149658,-3.205804,-9.119559
7472,-9.348383,-3.271319,-8.734493
7473,-9.593356,-3.368079,-8.165961
7474,-9.832446,-3.535435,-7.568451
7475,-10.040682,-3.718954,-7.134467
7476,-10.150347,-3.868424,-6.662075
7477,-10.371642,-4.141535,-6.159387
7478,-10.619152,-4.453232,-5.764850
7479,-10.847115,-4.773836,-5.405489
7480,-11.059583,-5.168555,-4.993494
7481,-11.350639,-5.651444,-4.751318
7482,-8.469547,0.949895,-9.930865
7483,-8.509591,0.812593,-9.491721
7484,-8.542761,1.281013,-8.535413
7485,-8.116652,1.101483,-8.391867
7486,-10.045487,1.590169,-8.114257
7487,-10.224800,1.527839,-7.618989
7488,-13.850178,-7.292370,0.373195
7489,-13.888337,-6.952201,0.542907
7490,-13.912468,-6.593053,0.695906
7491,-13.953190,-6.217393,0.845552
7492,-14.049238,-5.793855,0.993528
7493,-13.965953,-5.354868,1.038716
7494,-14.195604,-5.058860,1.171660
7495,-13.957366,-4.615642,1.133920
7496,-14.256343,-4.251188,1.287495
7497,-14.140542,-3.840039,1.289726
7498,-14.128070,-3.435575,1.324891
7499,-14.133125,-3.041083,1.364797
7500,-14.114319,-2.646625,1.392980
7501,-14.079550,-2.250610,1.414481
7502,-14.036038,-1.854722,1.434879
7503,-13.984442,-1.458378,1.450978
7504,-13.927507,-1.060094,1.455467
7505,-13.869252,-0.659715,1.444076
7506,-13.811855,-0.259142,1.417459
7507,-13.754376,0.138177,1.381531
7508,-13.692287,0.529070,1.346139
7509,-13.618794,0.911705,1.323422
7510,-13.532845,1.284904,1.327522
7511,-13.429400,1.651096,1.361362
7512,-13.224601,2.028217,1.351491
7513,-13.023753,2.357744,1.405219
7514,-12.920331,2.643830,1.537788
7515,-12.716346,2.973376,1.626423
7516,-12.496809,3.298002,1.706626
7517,-12.289993,3.627545,1.787885
7518,-12.078567,3.963399,1.849570
7519,-11.854464,4.291308,1.890001
7520,-11.637088,4.672077,1.943958
7521,-11.291637,4.945965,1.899263
7522,-11.257256,5.334182,2.017038
7523,-10.893836,5.485170,1.906914
7524,-10.735096,5.897419,1.965459
7525,-10.429334,6.219304,1.926852
7526,-10.179465,6.528519,1.897794
7527,-9.916989,6.821911,1.850178
7528,-9.655605,7.115508,1.792763
7529,-9.389095,7.406134,1.723155
7530,-9.120401,7.689840,1.642769
7531,-8.853601,7.967470,1.558020
7532,-8.592425,8.242957,1.479375
7533,-8.351739,7.926707,1.112782
7534,-8.129705,7.630486,0.697723
7535,-7.931926,7.364519,0.254271
7536,-7.760956,7.131853,-0.209249
7537,-7.613204,6.916130,-0.697680
7538,-7.439204,6.716723,-1.255885
7539,-7.270602,6.431706,-1.785947
7540,-7.097502,6.214694,-2.254034
7541,-6.924166,6.007026,-2.715101
7542,-6.748485,5.795929,-3.174974
7543,-6.567272,5.579690,-3.629363
7544,-6.389685,5.366545,-4.084847
7545,-6.207150,5.147300,-4.535621
7546,-6.009637,4.907627,-4.976824
7547,-5.851787,4.679456,-5.450254
7548,-5.774972,4.518262,-5.992855
7549,-5.749682,4.498102,-6.503822
7550,-11.425837,-5.858910,-4.378398
7551,-11.518233,-6.013649,-3.964630
7552,-11.616662,-6.135978,-3.555776
7553,-11.726283,-6.254808,-3.130094
7554,-11.860168,-6.370716,-2.694440
7555,-12.028867,-6.482029,-2.261574
7556,-12.235158,-6.582708,-1.831237
7557,-12.487446,-6.681654,-1.405913
7558,-12.785912,-6.786670,-0.986532
7559,-13.109793,-6.916201,-0.568190
7560,-13.483450,-7.141434,-0.100616
7561,-6.283695,0.160583,-10.674739
7562,-6.562613,0.224549,-10.295682
7563,-6.837119,0.313012,-10.045309
7564,-6.985544,0.483097,-9.604768
7565,-7.341048,0.568190,-9.331112
7566,-7.484640,0.692069,-8.992003
7567,-7.709741,0.860342,-8.652575
7568,-7.672642,1.002089,-8.261468
7569,-7.582059,1.142712,-7.864703
7570,-8.031287,1.202728,-7.969938
7571,-8.435937,1.323373,-8.072950
7572,-8.794255,1.455503,-8.128756
7573,-9.181853,1.569707,-8.197321
7574,-9.423084,1.626856,-7.885621
7575,-9.685469,1.713993,-7.681624
7576,-9.982274,1.775440,-7.449563
7577,-10.303651,1.689542,-7.395913
7578,-10.371655,1.526373,-7.312514
7579,-10.054367,1.419749,-7.421079
7580,-10.216855,1.421405,-7.138774
7581,-9.812348,1.451512,-7.648575
7582,-9.298208,1.415550,-7.715377
7583,-8.965114,1.345789,-7.930220
7584,-8.831208,1.275479,-8.225782
7585,-8.684237,1.111245,-8.446172
7586,-8.537270,0.875205,-8.635459
7587,-8.405086,0.667840,-8.952945
7588,-8.266088,0.527984,-9.390287
7589,-8.129323,0.403734,-8.892682
7590,-8.324117,0.646857,-9.902932
7591,-8.193865,0.643938,-10.278055
7592,-7.940880,0.530395,-10.413607
7593,-7.576844,0.395704,-10.553415
7594,-7.149271,0.188776,-10.759632
7595,-6.803795,0.022806,-11.181947
7596,-6.608739,-0.132395,-11.594816
7597,-6.560751,-0.303798,-11.978478
7598,-6.642761,-0.463663,-12.318251
7599,-6.796649,-0.604485,-12.641410
7600,-7.608122,-1.346824,-12.883272
7601,-7.873450,-1.670926,-12.730835
7602,-8.055755,-2.014335,-12.609500
7603,-8.155780,-2.279994,-12.379950
7604,-8.187244,-2.391183,-12.064015
7605,-8.213996,-2.557814,-11.740005
7606,-8.236310,-2.726106,-11.432527
7607,-8.288959,-2.889694,-11.120279
7608,-8.424838,-3.054838,-10.712841
7609,-8.584835,-3.031194,-10.234252
7610,-8.727938,-3.008414,-9.791592
7611,-8.855583,-2.992292,-9.336567
7612,-8.985698,-3.017941,-8.885378
7613,-9.142100,-3.085887,-8.429649
7614,-9.256681,-3.141750,-8.031966
7615,-9.466785,-3.283245,-7.662197
7616,-9.709814,-3.467087,-7.061857
7617,-9.854755,-3.602606,-6.211926
7618,-10.222103,-4.022003,-5.716000
7619,-10.462607,-4.339302,-5.379913
7620,-10.660411,-4.650659,-5.032268
7621,-10.780843,-4.902304,-4.696409
7622,-11.019863,-5.313674,-4.452300
7623,-11.130446,-5.575724,-4.014234
7624,-11.224898,-5.746514,-3.614383
7625,-11.332939,-5.886998,-3.192259
7626,-11.476619,-6.013607,-2.746126
7627,-11.667798,-6.131307,-2.297943
7628,-11.904273,-6.241171,-1.861275
7629,-12.178884,-6.340171,-1.439193
7630,-12.486758,-6.435080,-1.033856
7631,-12.816161,-6.535509,-0.641010
7632,-13.161307,-6.659137,-0.243754
7633,-13.519994,-6.806679,0.162309
7634,-5.828339,3.903338,-7.131460
7635,-5.767042,3.247846,-7.448991
7636,-5.692526,2.640785,-7.761093
7637,-5.567095,2.337740,-8.224679
7638,-5.469141,1.974606,-8.746498
7639,-5.388017,1.754577,-9.263121
7640,-5.346113,1.600262,-9.701161
7641,-5.274981,1.511451,-10.027695
7642,-5.475838,1.242148,-9.941765
7643,-5.569638,0.925872,-10.161699
7644,-5.656370,0.714647,-10.409363
7645,-5.903140,0.443353,-10.594189
7646,-8.585220,7.646713,1.196989
7647,-8.340720,7.352262,0.799095
7648,-8.115727,7.084535,0.371813
7649,-7.910510,6.841056,-0.078303
7650,-7.727607,6.616760,-0.542641
7651,-7.558975,6.405042,-1.018401
7652,-7.390010,6.188932,-1.495954
7653,-7.213635,5.969704,-1.958150
7654,-7.033469,5.755299,-2.411708
7655,-6.854156,5.538174,-2.867244
7656,-6.675574,5.315951,-3.322098
7657,-6.499013,5.089147,-3.776168
7658,-6.327573,4.857558,-4.233599
7659,-6.155797,4.614315,-4.695755
7660,-6.003166,4.372530,-5.176612
7661,-5.907739,4.166450,-5.708520
7662,-5.853703,4.055683,-6.389901
7663,-13.505664,-6.468044,0.375017
7664,-13.508635,-6.110798,0.560004
7665,-13.535657,-5.734090,0.713966
7666,-13.558100,-5.338512,0.826293
7667,-13.619786,-4.910122,0.935536
7668,-13.505943,-4.480419,0.947460
7669,-13.742560,-4.190342,1.095677
7670,-13.630430,-3.780567,1.088180
7671,-13.623040,-3.388627,1.124213
7672,-13.628834,-3.004561,1.162504
7673,-13.611449,-2.616919,1.184362
7674,-13.582462,-2.227148,1.198728
7675,-13.547184,-1.836878,1.210425
7676,-13.506395,-1.444776,1.213121
7677,-13.463606,-1.049876,1.197807
7678,-13.424013,-0.653021,1.159780
7679,-13.390425,-0.257499,1.100568
7680,-13.361763,0.132470,1.027688
7681,-13.331044,0.514149,0.955343
7682,-13.290153,0.886725,0.902734
7683,-13.237152,1.251302,0.891696
7684,-13.145109,1.609637,0.908890
7685,-12.926928,1.929077,0.826789
7686,-12.804465,2.239970,1.035089
7687,-12.601209,2.526685,1.132379
7688,-12.382190,2.816762,1.240051
7689,-12.152624,3.120055,1.354478
7690,-11.925734,3.432019,1.459755
7691,-11.703017,3.747200,1.541840
7692,-11.479977,4.054400,1.595545
7693,-11.248943,4.357072,1.626095
7694,-11.016934,4.674197,1.652403
7695,-10.884523,5.063335,1.746762
7696,-10.545493,5.302295,1.662742
7697,-10.299977,5.614022,1.650567
7698,-10.066717,5.919818,1.634457
7699,-9.827190,6.214995,1.596776
7700,-9.576983,6.506922,1.539957
7701,-9.323801,6.798098,1.469366
7702,-9.071649,7.085553,1.385013
7703,-8.823758,7.367484,1.289949
7704,-6.209538,0.388776,-10.155759
7705,-6.480526,0.467810,-9.766009
7706,-6.570944,0.642708,-9.322665
7707,-6.940877,0.699081,-9.032090
7708,-7.176826,0.799990,-8.671907
7709,-7.340419,0.877353,-8.441511
7710,-7.210471,1.006432,-8.159442
7711,-7.102391,1.195790,-7.749940
7712,-7.518661,1.289391,-7.416204
7713,-7.082775,1.373463,-7.300741
7714,-7.946035,1.302052,-7.532436
7715,-8.326845,1.369447,-7.650140
7716,-8.623094,1.441694,-7.758810
7717,-8.914706,1.507109,-7.672573
7718,-9.161216,1.535061,-7.415795
7719,-9.427428,1.587894,-7.199117
7720,-9.705604,1.638814,-6.864405
7721,-10.151115,1.726273,-6.927876
7722,-10.356196,1.579762,-6.969956
7723,-10.292571,1.425145,-6.642965
7724,-9.965159,1.340683,-6.714458
7725,-10.124213,1.302283,-6.354582
7726,-9.840543,1.390723,-7.125496
7727,-9.459298,1.385146,-7.163430
7728,-9.073488,1.290948,-7.192631
7729,-8.862384,1.234270,-7.568896
7730,-8.663070,1.126250,-7.897185
7731,-8.601563,1.080036,-8.151832
7732,-8.412480,0.782481,-8.021329
7733,-8.212645,0.468101,-8.350347
7734,-7.983764,0.246143,-8.499142
7735,-7.850855,0.205982,-8.967201
7736,-7.756422,0.021161,-8.487632
7737,-7.972425,0.337675,-9.402953
7738,-8.080455,0.428282,-9.803201
7739,-8.126555,0.495884,-10.111114
7740,-7.850399,0.383123,-10.156780
7741,-7.470406,0.230364,-10.266488
7742,-7.106782,-0.032113,-10.409305
7743,-6.869572,-0.193830,-10.821727
7744,-6.712869,-0.379615,-11.242806
7745,-6.704236,-0.542788,-11.648574
7746,-6.830505,-0.697311,-12.023666
7747,-6.954906,-0.781725,-12.368680
7748,-7.198003,-0.971520,-12.734998
7749,-6.896898,-0.675021,-12.930300
7750,-7.450222,-1.250763,-12.433925
7751,-7.655362,-1.479510,-12.344415
7752,-7.853436,-1.720265,-12.273028
7753,-7.994848,-1.947753,-12.035364
7754,-8.073330,-2.115679,-11.677680
7755,-8.129683,-2.286060,-11.378279
7756,-8.182806,-2.447542,-11.078166
7757,-8.260856,-2.598106,-10.767151
7758,-8.359968,-2.696125,-10.418133
7759,-8.460377,-2.721921,-10.026454
7760,-8.555494,-2.714809,-9.593573
7761,-8.648546,-2.720450,-9.130655
7762,-8.756212,-2.765189,-8.660758
7763,-8.880607,-2.822452,-8.126094
7764,-9.138001,-3.012049,-7.738418
7765,-9.245923,-3.063832,-7.302903
7766,-9.400396,-3.163341,-6.742159
7767,-9.448802,-3.172986,-6.237314
7768,-10.129483,-3.929324,-5.179425
7769,-10.343812,-4.227944,-4.919938
7770,-10.526820,-4.527250,-4.619509
7771,-10.690730,-4.839812,-4.334587
7772,-10.822064,-5.126042,-4.055638
7773,-10.900599,-5.327097,-3.724128
7774,-10.971032,-5.476765,-3.321795
7775,-11.086110,-5.619324,-2.877910
7776,-11.258427,-5.743919,-2.425511
7777,-11.487123,-5.856320,-1.974308
7778,-11.763200,-5.965670,-1.538891
7779,-12.068991,-6.061239,-1.123587
7780,-12.400400,-6.150709,-0.725444
7781,-12.752285,-6.242174,-0.343466
7782,-13.120862,-6.344715,0.024575
7783,-9.873248,-3.612163,-5.424759
7784,-9.556776,-3.260092,-5.695234
7785,-8.551250,7.068722,0.901159
7786,-8.299855,6.793786,0.485860
7787,-8.066540,6.541231,0.050069
7788,-7.849565,6.307622,-0.398502
7789,-7.647908,6.086878,-0.850124
7790,-7.456909,5.871554,-1.299235
7791,-7.269490,5.656295,-1.745957
7792,-7.082409,5.438162,-2.192693
7793,-6.898839,5.215879,-2.642033
7794,-6.721413,4.987766,-3.094052
7795,-6.550908,4.752395,-3.549665
7796,-6.389947,4.511200,-4.012358
7797,-6.243226,4.265266,-4.487193
7798,-6.116715,4.021657,-4.978847
7799,-6.024586,3.794176,-5.481675
7800,-5.967005,3.588864,-6.005409
7801,-5.902559,3.361773,-6.633523
7802,-5.869205,2.986237,-6.928714
7803,-5.882269,2.585599,-7.187270
7804,-5.748333,1.828507,-8.261850
7805,-5.672925,1.628538,-8.696874
7806,-5.621968,1.502822,-9.073184
7807,-5.588796,1.323676,-9.521142
7808,-5.808044,0.903165,-9.729547
7809,-5.891457,0.632759,-10.101343
7810,-5.866248,2.113432,-7.700873
7811,-6.111512,2.081291,-7.181666
7812,-13.091370,-5.998817,0.244604
7813,-13.087437,-5.632610,0.419802
7814,-13.088778,-5.253621,0.545466
7815,-13.100855,-4.873027,0.641918
7816,-13.108325,-4.488138,0.720094
7817,-13.249815,-4.120750,0.858004
7818,-13.128483,-3.723305,0.838470
7819,-13.130701,-3.340459,0.884513
7820,-13.133875,-2.961727,0.922537
7821,-13.117557,-2.577523,0.940455
7822,-13.095267,-2.191613,0.949391
7823,-13.070412,-1.804431,0.951926
7824,-13.042895,-1.414908,0.940671
7825,-13.016475,-1.022891,0.905877
7826,-12.997401,-0.630501,0.842342
7827,-12.990380,-0.241973,0.751302
7828,-12.994707,0.138793,0.641723
7829,-13.002626,0.509975,0.531240
7830,-13.006402,0.872837,0.446067
7831,-12.992554,1.232295,0.415033
7832,-12.910515,1.584674,0.414320
7833,-12.695829,1.892232,0.321727
7834,-12.544702,2.174125,0.556080
7835,-12.315619,2.427658,0.692173
7836,-12.067519,2.683159,0.818423
7837,-11.823942,2.954198,0.962080
7838,-11.586883,3.240610,1.095181
7839,-11.355892,3.538749,1.200696
7840,-11.124619,3.836771,1.270623
7841,-10.883530,4.121530,1.302884
7842,-10.655866,4.415943,1.331218
7843,-10.523493,4.796933,1.438508
7844,-10.186659,5.026780,1.342355
7845,-9.955106,5.322724,1.327389
7846,-9.735241,5.627141,1.310825
7847,-9.497588,5.921581,1.263899
7848,-9.252728,6.211215,1.195475
7849,-9.011076,6.499680,1.111312
7850,-8.776169,6.785845,1.011348
7851,-6.105662,0.603524,-9.793575
7852,-6.179294,0.738348,-9.435043
7853,-6.646588,0.894299,-8.673908
7854,-6.907140,0.930892,-8.410267
7855,-6.662647,1.163154,-8.075185
7856,-6.597334,1.414037,-7.626421
7857,-6.711771,1.546707,-7.205826
7858,-7.027633,1.560861,-6.855524
7859,-6.728096,1.640493,-6.975525
7860,-7.494924,1.426518,-6.949761
7861,-7.914677,1.392816,-7.092177
7862,-8.284606,1.414339,-7.264442
7863,-8.559531,1.452910,-7.453663
7864,-8.672144,1.467180,-7.224706
7865,-8.860841,1.473283,-6.965089
7866,-9.135406,1.485689,-6.686033
7867,-9.472922,1.493630,-6.280734
7868,-9.954865,1.647023,-6.488005
7869,-10.270708,1.606078,-6.417014
7870,-10.363184,1.431925,-6.196956
7871,-10.283735,1.299675,-6.008113
7872,-9.880942,1.245087,-6.037087
7873,-10.090884,1.257097,-5.719716
7874,-9.700276,1.278660,-6.343089
7875,-9.558478,1.334186,-6.692134
7876,-9.168285,1.234487,-6.678938
7877,-8.869448,1.111300,-6.852622
7878,-8.703359,1.041006,-7.171067
7879,-8.514090,0.901251,-7.535718
7880,-8.345343,1.447234,-6.900927
7881,-8.489965,1.470928,-6.443834
7882,-9.957338,1.553517,-6.006342
7883,-9.555062,1.419990,-5.723156
7884,-10.267109,1.550365,-5.852358
7885,-10.412430,1.433648,-5.770881
7886,-10.414832,1.314373,-5.636816
7887,-10.302129,1.269861,-5.357620
7888,-9.854370,1.197258,-5.337630
7889,-10.046548,1.223326,-5.078621
7890,-9.603338,1.153286,-5.663219
7891,-9.421581,1.171024,-6.016917
7892,-9.357785,1.242433,-6.344362
7893,-9.067566,1.053521,-6.175706
7894,-8.799975,0.936261,-6.461398
7895,-8.571956,0.803222,-6.769184
7896,-8.386705,0.648856,-7.116527
7897,-8.241484,0.480580,-7.466822
7898,-8.105160,0.289560,-7.753043
7899,-7.937246,0.115892,-8.040665
7900,-7.700270,-0.215980,-7.959962
7901,-7.509229,-0.345636,-8.506627
7902,-7.554167,-0.431306,-8.069718
7903,-7.561816,-0.054194,-9.050050
7904,-7.643626,0.138642,-9.485600
7905,-7.745081,0.275786,-9.848570
7906,-7.349796,0.005940,-9.961738
7907,-7.063424,-0.280499,-10.238493
7908,-6.919236,-0.369382,-10.545389
7909,-6.862374,-0.654920,-10.943852
7910,-6.816417,-0.726321,-11.376259
7911,-6.970727,-0.896246,-11.704041
7912,-7.188989,-1.039658,-12.141993
7913,-7.449965,-1.307639,-12.059412
7914,-7.619140,-1.516710,-11.848797
7915,-7.745611,-1.693306,-11.529001
7916,-7.861963,-1.869371,-11.264189
7917,-7.961206,-2.041425,-10.990970
7918,-8.056520,-2.201129,-10.713129
7919,-8.153051,-2.340657,-10.443292
7920,-8.242304,-2.432183,-10.161409
7921,-8.312391,-2.457320,-9.824822
7922,-8.361752,-2.447824,-9.422061
7923,-8.414777,-2.460982,-8.979080
7924,-8.485597,-2.499163,-8.497877
7925,-8.516198,-2.489236,-7.959389
7926,-8.817146,-2.699153,-7.503560
7927,-8.981167,-2.779301,-6.937557
7928,-9.158302,-2.900528,-6.506813
7929,-9.198916,-2.906396,-6.029783
7930,-9.272197,-2.953660,-5.470345
7931,-9.582772,-3.268815,-5.059464
7932,-9.303942,-2.962980,-4.900757
7933,-9.837797,-3.561932,-4.802458
7934,-10.062569,-3.851277,-4.632909
7935,-10.268001,-4.144971,-4.416032
7936,-10.452064,-4.448548,-4.167116
7937,-10.601844,-4.742731,-3.950674
7938,-10.705331,-4.983592,-3.782721
7939,-10.724070,-5.074305,-3.434800
7940,-10.796090,-5.215337,-2.980872
7941,-10.942446,-5.390876,-2.591452
7942,-11.086014,-5.436160,-2.171702
7943,-11.339040,-5.542323,-1.706866
7944,-11.637987,-5.649882,-1.271582
7945,-11.964279,-5.739602,-0.859248
7946,-12.317086,-5.822547,-0.467023
7947,-12.693706,-5.906107,-0.098552
7948,-8.500893,6.506842,0.612251
7949,-8.244050,6.247896,0.193852
7950,-8.003200,6.006796,-0.238415
7951,-7.776424,5.778147,-0.677640
7952,-7.562271,5.555370,-1.118153
7953,-7.358367,5.334097,-1.558619
7954,-7.162756,5.111594,-2.000718
7955,-6.975467,4.884340,-2.445440
7956,-6.799313,4.648479,-2.894408
7957,-6.635746,4.403187,-3.351242
7958,-6.486049,4.152633,-3.818761
7959,-6.355489,3.901583,-4.296381
7960,-6.248652,3.654473,-4.784110
7961,-6.162571,3.427869,-5.269033
7962,-6.105746,3.210746,-5.722527
7963,-6.060234,2.990486,-6.165800
7964,-5.988198,2.769970,-6.617652
7965,-6.121132,2.325320,-6.750023
7966,-6.297487,2.021925,-6.891668
7967,-6.285811,1.742574,-7.425603
7968,-6.453913,1.783794,-7.077466
7969,-6.099602,1.670853,-7.821749
7970,-6.008881,1.550314,-8.125246
7971,-5.913107,1.448956,-8.467228
7972,-5.821908,1.345897,-8.832396
7973,-5.911380,1.081914,-9.184598
7974,-6.371171,0.848412,-9.014770
7975,-12.667627,-5.545492,0.095628
7976,-12.647934,-5.169960,0.233402
7977,-12.646170,-4.796042,0.341475
7978,-12.718545,-4.495915,0.463957
7979,-12.705195,-4.099528,0.521452
7980,-12.640093,-3.669833,0.545239
7981,-12.652233,-3.293854,0.606332
7982,-12.650772,-2.914411,0.646258
7983,-12.636857,-2.530827,0.663751
7984,-12.622416,-2.146434,0.668621
7985,-12.609045,-1.760648,0.663539
7986,-12.595771,-1.372646,0.640580
7987,-12.586655,-0.983199,0.588377
7988,-12.589322,-0.595803,0.500796
7989,-12.610384,-0.214919,0.379771
7990,-12.650922,0.155563,0.235553
7991,-12.706711,0.513357,0.087121
7992,-12.763581,0.862268,-0.032901
7993,-12.777489,1.213572,-0.084247
7994,-12.694297,1.558500,-0.085473
7995,-12.530124,1.822756,-0.130764
7996,-12.317368,2.097699,-0.014327
7997,-12.062145,2.341626,0.220237
7998,-11.787495,2.556050,0.380338
7999,-11.525070,2.792495,0.548280
8000,-11.274840,3.052558,0.705062
8001,-11.034233,3.330397,0.830652
8002,-10.796310,3.615464,0.916190
8003,-10.549414,3.892730,0.956723
8004,-10.315194,4.175783,0.986923
8005,-10.175381,4.534762,1.098694
8006,-9.856978,4.758734,0.998625
8007,-9.632337,5.052349,0.982698
8008,-9.413953,5.354037,0.961386
8009,-9.180281,5.644685,0.906251
8010,-8.944777,5.931584,0.826959
8011,-8.717106,6.219395,0.728950
8012,-6.140906,1.124813,-8.699259
8013,-6.422157,1.094945,-8.411232
8014,-7.268180,-1.189551,-11.706122
8015,-7.359297,-1.316005,-11.372565
8016,-7.487733,-1.466779,-11.087320
8017,-7.632822,-1.650451,-10.826488
8018,-7.770576,-1.834322,-10.569259
8019,-7.902038,-2.004930,-10.331843
8020,-8.027504,-2.153822,-10.120183
8021,-8.135140,-2.260016,-9.940648
8022,-8.168372,-2.265013,-9.674704
8023,-8.141074,-2.219198,-9.334569
8024,-8.150742,-2.222281,-8.875403
8025,-8.158707,-2.219177,-8.311603
8026,-8.239683,-2.252590,-7.771734
8027,-8.414554,-2.349463,-7.375901
8028,-8.589984,-2.434388,-6.898949
8029,-8.817437,-2.572324,-6.372359
8030,-8.960883,-2.663205,-5.845537
8031,-8.985288,-2.659419,-5.382359
8032,-9.026026,-2.627819,-4.807920
8033,-9.283767,-2.865589,-4.337889
8034,-9.098030,-2.585519,-4.284532
8035,-9.557711,-3.204908,-4.379558
8036,-9.811358,-3.514784,-4.221016
8037,-10.024271,-3.798174,-4.086213
8038,-10.226177,-4.092019,-3.891720
8039,-10.410016,-4.400526,-3.672040
8040,-10.565739,-4.722537,-3.518331
8041,-7.934806,1.474405,-6.621357
8042,-7.918492,1.575395,-6.043159
8043,-9.968026,1.473165,-5.422890
8044,-9.597826,1.374382,-5.255421
8045,-10.274190,1.508654,-5.442045
8046,-10.425866,1.418028,-5.333651
8047,-10.533998,1.318507,-5.253348
8048,-10.551232,1.258670,-5.098034
8049,-10.345093,1.220998,-4.963136
8050,-10.373562,1.079824,-4.555315
8051,-10.007008,1.085752,-4.697006
8052,-9.677099,1.009000,-4.882529
8053,-9.362209,0.916399,-5.212526
8054,-9.063979,0.863158,-5.671534
8055,-8.704296,0.679808,-6.019453
8056,-8.468247,0.530004,-6.365748
8057,-8.287100,0.383158,-6.725970
8058,-8.149223,0.243961,-7.071664
8059,-8.052790,0.141667,-7.352395
8060,-7.894703,-0.075389,-7.499158
8061,-7.715731,-0.420234,-7.470226
8062,-7.590812,-0.512777,-7.806328
8063,-7.473662,-0.761048,-8.117884
8064,-7.585275,-0.804193,-7.586799
8065,-7.353639,-0.832846,-8.754241
8066,-7.330261,-0.470756,-9.154247
8067,-7.346290,-0.200374,-9.562584
8068,-9.199416,1.386993,-5.455177
8069,-9.311141,1.376479,-5.097479
8070,-8.934391,1.442275,-5.146006
8071,-9.093565,1.422965,-4.914928
8072,-10.614775,-4.823845,-3.000240
8073,-10.783531,-5.064701,-2.508673
8074,-10.958527,-5.091958,-1.975892
8075,-11.236513,-5.205191,-1.488863
8076,-11.553011,-5.306186,-1.052783
8077,-11.899140,-5.389426,-0.642475
8078,-12.271494,-5.467685,-0.258911
8079,-8.441166,5.957079,0.327979
8080,-8.182535,5.711231,-0.087934
8081,-7.940096,5.477494,-0.514170
8082,-7.712868,5.250200,-0.946501
8083,-7.498991,5.025023,-1.382129
8084,-7.297185,4.798789,-1.819902
8085,-7.109225,4.566217,-2.260327
8086,-6.938189,4.321124,-2.706162
8087,-6.784888,4.063370,-3.162873
8088,-6.644804,3.811191,-3.627545
8089,-6.529734,3.560438,-4.092747
8090,-6.442185,3.306579,-4.565804
8091,-6.362996,3.074608,-5.049188
8092,-6.272250,2.943711,-5.462671
8093,-6.276242,2.696318,-5.809044
8094,-6.229625,2.468512,-6.269278
8095,-6.268677,2.253795,-6.486539
8096,-6.335859,2.109755,-6.637423
8097,-6.617332,1.834149,-6.734774
8098,-7.148474,-0.449900,-9.976911
8099,-7.020549,-0.721511,-10.453443
8100,-7.126012,-1.069687,-10.947273
8101,-7.035461,-0.994439,-11.329141
8102,-12.237112,-5.099923,-0.109919
8103,-12.214277,-4.721833,0.003682
8104,-12.319944,-4.372927,0.184521
8105,-12.196112,-3.980309,0.165743
8106,-12.184925,-3.613144,0.227568
8107,-12.186641,-3.243448,0.289441
8108,-12.182250,-2.861001,0.333941
8109,-12.172713,-2.477832,0.353253
8110,-12.166474,-2.094911,0.356602
8111,-12.164342,-1.710398,0.347271
8112,-12.165713,-1.322842,0.315707
8113,-12.175157,-0.934895,0.249016
8114,-12.199842,-0.551672,0.140398
8115,-12.247372,-0.178151,-0.006581
8116,-12.325259,0.179812,-0.180585
8117,-12.432567,0.518178,-0.363224
8118,-12.527091,0.849459,-0.518926
8119,-12.542951,1.193654,-0.572074
8120,-12.456608,1.530977,-0.554334
8121,-12.299140,1.841314,-0.526409
8122,-12.032023,2.080291,-0.571062
8123,-11.828292,2.263516,-0.265890
8124,-11.535162,2.434045,-0.063876
8125,-11.250907,2.634968,0.123384
8126,-10.985895,2.869655,0.297849
8127,-10.734377,3.127966,0.439824
8128,-10.489456,3.397996,0.538765
8129,-10.239597,3.665698,0.588023
8130,-10.002771,3.942179,0.622556
8131,-9.855900,4.288826,0.740449
8132,-9.547002,4.509652,0.636086
8133,-9.323905,4.798125,0.618289
8134,-9.107481,5.094014,0.592816
8135,-8.879769,5.381223,0.530358
8136,-8.654421,5.667654,0.440347
8137,-6.984132,1.777039,-6.330131
8138,-7.461763,1.573605,-6.431854
8139,-8.382136,5.418899,0.038214
8140,-8.128032,5.182207,-0.376006
8141,-7.892241,4.952878,-0.798889
8142,-7.673414,4.726521,-1.227934
8143,-7.469792,4.499002,-1.660818
8144,-7.284757,4.263035,-2.096053
8145,-7.124078,4.010324,-2.536842
8146,-6.983746,3.750680,-2.984992
8147,-6.858773,3.494416,-3.444976
8148,-6.730321,3.326669,-3.859488
8149,-6.701781,3.051252,-4.248854
8150,-6.645639,2.797533,-4.732192
8151,-6.556046,2.575997,-5.294477
8152,-6.557124,2.298201,-5.797660
8153,-6.533720,2.092917,-6.295049
8154,-6.291252,1.414391,-7.946428
8155,-7.277837,-1.230439,-10.617521
8156,-7.438198,-1.444542,-10.347150
8157,-7.877472,-1.980681,-9.212534
8158,-7.955933,-2.059843,-9.705622
8159,-7.859687,-1.963339,-8.710800
8160,-7.840587,-1.928676,-8.245570
8161,-7.959059,-1.994314,-7.804487
8162,-8.086632,-2.030704,-7.280525
8163,-8.245875,-2.095049,-6.777339
8164,-8.433235,-2.198940,-6.295791
8165,-8.650553,-2.336945,-5.775563
8166,-8.744949,-2.348052,-5.214012
8167,-8.796930,-2.295133,-4.796002
8168,-8.917171,-2.316312,-4.402635
8169,-9.209283,-2.581164,-3.849030
8170,-9.029565,-2.260895,-3.927494
8171,-9.407217,-2.892718,-3.796435
8172,-9.611173,-3.188227,-3.744433
8173,-9.812098,-3.469099,-3.674230
8174,-10.011506,-3.748394,-3.557523
8175,-10.206072,-4.038713,-3.367504
8176,-10.412928,-4.377751,-3.063917
8177,-6.126027,1.251582,-8.441703
8178,-6.201315,1.321555,-8.231265
8179,-7.209134,-0.701004,-9.658688
8180,-7.181074,-0.972422,-10.125520
8181,-8.421232,1.524903,-5.754994
8182,-7.818459,1.730300,-5.377590
8183,-8.190732,1.672511,-5.078672
8184,-8.705262,1.484243,-5.391453
8185,-8.500304,1.593452,-4.906480
8186,-8.774007,1.526410,-4.748480
8187,-9.058982,1.472275,-4.546610
8188,-9.352845,1.392404,-4.723602
8189,-9.597940,1.361372,-4.837387
8190,-9.837401,1.388002,-4.959551
8191,-10.138885,1.437089,-4.955115
8192,-10.461748,1.422103,-4.831309
8193,-10.644621,1.333609,-4.924486
8194,-10.655139,1.247031,-4.707505
8195,-10.416131,0.877441,-4.128501
8196,-10.728793,1.063669,-4.314099
8197,-10.011062,0.869185,-4.228711
8198,-9.631466,0.751734,-4.358457
8199,-9.197969,0.529935,-4.668067
8200,-8.879854,0.475954,-5.186416
8201,-8.605503,0.356793,-5.606858
8202,-8.372010,0.211941,-5.999374
8203,-8.193816,0.090116,-6.402498
8204,-8.062284,0.000383,-6.793687
8205,-7.989099,-0.027668,-7.115028
8206,-7.877663,-0.264240,-7.058933
8207,-7.749218,-0.693055,-7.040929
8208,-7.777350,-1.180158,-6.866937
8209,-7.644647,-1.209309,-7.392766
8210,-7.529303,-1.236906,-7.924851
8211,-7.445166,-1.252968,-8.494668
8212,-7.285651,-0.999567,-9.335890
8213,-7.314158,-1.226567,-9.850869
8214,-7.759728,-1.857246,-9.909905
8215,-7.595060,-1.656427,-10.109380
8216,-11.852993,-5.027556,-0.482452
8217,-11.805390,-4.658328,-0.372528
8218,-11.831424,-4.253328,-0.216181
8219,-11.831631,-3.874334,-0.116031
8220,-11.756359,-3.559861,-0.117813
8221,-11.737863,-3.183367,-0.062264
8222,-11.732609,-2.801654,-0.011960
8223,-11.726449,-2.422011,0.010220
8224,-11.726623,-2.042468,0.013820
8225,-11.735063,-1.658732,0.002106
8226,-11.752418,-1.269878,-0.034709
8227,-11.782169,-0.881531,-0.110843
8228,-11.827287,-0.500933,-0.235321
8229,-11.897332,-0.134762,-0.403490
8230,-12.009962,0.208077,-0.601237
8231,-12.155437,0.526551,-0.814739
8232,-12.245832,0.860571,-1.035781
8233,-12.323760,1.214742,-0.959446
8234,-12.209270,1.492520,-1.012468
8235,-12.064432,1.809214,-1.009308
8236,-11.798709,2.026944,-1.056499
8237,-11.593597,2.187408,-0.742479
8238,-11.293559,2.317200,-0.511978
8239,-10.991765,2.484581,-0.308742
8240,-10.713558,2.694991,-0.121765
8241,-10.452525,2.934630,0.033370
8242,-10.201661,3.190253,0.144886
8243,-9.950268,3.447833,0.203964
8244,-9.712594,3.717069,0.243598
8245,-9.559154,4.054938,0.366228
8246,-9.257313,4.272164,0.259082
8247,-9.035483,4.553393,0.238667
8248,-8.820294,4.844093,0.208122
8249,-8.597803,5.130591,0.138463
8250,-10.625711,-4.629094,-2.408888
8251,-10.874873,-4.742778,-1.794323
8252,-11.166371,-4.857271,-1.318585
8253,-11.494421,-4.948853,-0.885496
8254,-6.937751,1.990025,-5.787415
8255,-7.399658,1.750084,-5.840186
8256,-7.654904,-1.741912,-9.431586
8257,-7.467060,-1.485921,-9.614799
8258,-7.607417,-1.668400,-8.907945
8259,-7.621437,-1.642658,-8.365094
8260,-7.694267,-1.642962,-7.829654
8261,-7.811139,-1.641535,-7.293343
8262,-7.952252,-1.643200,-6.710617
8263,-8.157212,-1.805469,-6.173400
8264,-8.362339,-1.961753,-5.728293
8265,-8.507736,-2.016022,-5.302275
8266,-8.620244,-2.008682,-4.879084
8267,-8.738266,-1.974770,-4.452607
8268,-8.875944,-1.927262,-4.009945
8269,-9.024549,-1.885469,-3.582895
8270,-9.144823,-2.181995,-3.492968
8271,-9.311750,-2.489406,-3.365981
8272,-9.490887,-2.813750,-3.270276
8273,-9.669538,-3.122031,-3.216561
8274,-9.849082,-3.409073,-3.166108
8275,-10.025910,-3.681025,-3.077431
8276,-10.196364,-3.937838,-2.908159
8277,-10.368372,-4.148991,-2.576003
8278,-10.564773,-4.293614,-2.114418
8279,-10.808557,-4.406133,-1.643295
8280,-11.101699,-4.505313,-1.193964
8281,-11.434641,-4.588736,-0.771078
8282,-6.930527,2.204340,-5.249636
8283,-7.339654,1.954223,-5.222813
8284,-8.119709,1.794937,-4.570971
8285,-8.375273,1.734745,-4.391246
8286,-8.690999,1.637082,-4.261139
8287,-9.000855,1.569139,-4.050146
8288,-9.405179,1.429541,-4.289566
8289,-9.558638,1.375263,-4.560836
8290,-9.783630,1.379481,-4.530922
8291,-10.108233,1.417227,-4.407254
8292,-10.430578,1.507350,-4.292829
8293,-10.679172,1.446635,-4.539424
8294,-10.848029,1.353466,-4.275572
8295,-10.967014,1.142045,-3.984077
8296,-9.719756,1.421907,-4.025400
8297,-10.107891,1.489018,-3.871294
8298,-10.478550,1.604624,-3.911161
8299,-10.713750,1.583743,-4.102055
8300,-10.936674,1.510425,-3.871838
8301,-11.087037,1.299027,-3.638776
8302,-11.035683,0.919383,-3.648046
8303,-11.189415,1.065326,-3.389802
8304,-10.780955,0.858459,-3.927307
8305,-10.509759,0.731444,-3.746292
8306,-10.116618,0.648843,-3.695747
8307,-9.700090,0.511978,-3.817392
8308,-9.326503,0.300574,-4.042406
8309,-8.519713,-0.012574,-5.254628
8310,-8.744771,0.086074,-4.848847
8311,-8.307423,-0.149156,-5.666940
8312,-8.116898,-0.259184,-6.128375
8313,-7.963564,-0.309346,-6.615370
8314,-7.910656,-0.758722,-6.405086
8315,-7.885228,-1.216038,-6.440258
8316,-11.399075,-4.229506,-0.660083
8317,-11.476813,-3.881627,-0.460793
8318,-11.345652,-3.499056,-0.499124
8319,-11.314984,-3.117552,-0.443052
8320,-11.305090,-2.741656,-0.387805
8321,-11.292137,-2.360727,-0.368635
8322,-11.302687,-1.977240,-0.358265
8323,-11.327179,-1.597095,-0.365503
8324,-11.356653,-1.210600,-0.409286
8325,-11.407879,-0.822757,-0.488008
8326,-11.470036,-0.446609,-0.623724
8327,-11.557880,-0.088913,-0.810684
8328,-11.697082,0.238639,-1.028031
8329,-11.862245,0.528703,-1.257785
8330,-11.942087,0.751214,-1.472972
8331,-12.060824,1.079321,-1.427192
8332,-11.976190,1.446595,-1.485305
8333,-11.840625,1.759283,-1.479637
8334,-11.553939,1.955035,-1.520710
8335,-11.347453,2.101535,-1.206073
8336,-11.047465,2.204790,-0.964557
8337,-10.739056,2.342989,-0.747798
8338,-10.452858,2.530691,-0.550400
8339,-10.185123,2.752548,-0.385174
8340,-9.930579,2.994866,-0.261799
8341,-9.680307,3.243206,-0.190701
8342,-9.444636,3.503979,-0.143654
8343,-9.285568,3.831191,-0.017398
8344,-8.990704,4.043292,-0.128167
8345,-8.768015,4.316931,-0.154042
8346,-8.552371,4.604019,-0.190825
8347,-8.334689,4.891556,-0.266920
8348,-8.091245,4.661684,-0.681812
8349,-7.868520,4.436600,-1.103451
8350,-7.665838,4.210462,-1.530703
8351,-7.486228,3.975388,-1.960718
8352,-7.338149,3.721329,-2.393684
8353,-7.209785,3.464032,-2.836979
8354,-7.075336,3.285859,-3.242874
8355,-6.999385,3.004153,-3.717961
8356,-6.982289,2.677047,-4.224839
8357,-6.947218,2.434604,-4.727923
8358,-8.118648,-0.653235,-5.798253
8359,-8.025078,-1.142554,-5.963313
8360,-8.091867,-1.498983,-5.913443
8361,-7.985822,-1.462243,-6.245189
8362,-8.945432,0.040185,-4.381225
8363,-9.132660,-0.113035,-3.867421
8364,-8.225612,-1.648772,-5.628994
8365,-8.357040,-1.698517,-5.273398
8366,-8.472329,-1.670566,-4.912732
8367,-8.601672,-1.619298,-4.518165
8368,-8.758761,-1.576804,-4.091199
8369,-8.944255,-1.561197,-3.655397
8370,-9.160088,-1.640288,-3.220479
8371,-9.129963,-1.900221,-3.322296
8372,-9.256591,-2.036434,-3.133850
8373,-9.445006,-2.344659,-2.910545
8374,-9.625157,-2.708883,-2.771875
8375,-9.789538,-3.045833,-2.713194
8376,-9.941103,-3.346652,-2.692477
8377,-10.086244,-3.616870,-2.658922
8378,-10.213170,-3.836248,-2.583890
8379,-10.345296,-3.955556,-2.327459
8380,-10.500262,-3.992615,-1.959003
8381,-10.749956,-4.073689,-1.512816
8382,-11.050568,-4.156147,-1.077592
8383,-7.415225,-1.335580,-9.076087
8384,-11.102816,-3.819445,-0.866079
8385,-10.967607,-3.429012,-0.906637
8386,-10.924694,-3.055603,-0.848702
8387,-10.896624,-2.678468,-0.797035
8388,-10.832746,-2.229500,-0.823625
8389,-10.968451,-1.849289,-0.684941
8390,-10.945689,-1.512017,-0.750591
8391,-10.992621,-1.132301,-0.792050
8392,-11.055772,-0.759653,-0.874459
8393,-11.128381,-0.395687,-1.020262
8394,-11.225510,-0.046695,-1.230547
8395,-11.381548,0.268840,-1.468783
8396,-11.573051,0.533603,-1.697122
8397,-11.734241,0.788966,-1.861961
8398,-11.802834,1.089722,-1.928382
8399,-11.761709,1.411889,-1.938594
8400,-11.611732,1.695594,-1.936128
8401,-11.309835,1.879926,-1.991605
8402,-11.092787,2.013037,-1.674233
8403,-10.795833,2.095230,-1.422892
8404,-10.488617,2.208962,-1.192571
8405,-10.199295,2.376309,-0.984644
8406,-9.928056,2.582711,-0.812461
8407,-9.671966,2.813685,-0.680167
8408,-9.425126,3.054696,-0.595998
8409,-9.188970,3.306829,-0.545063
8410,-9.027972,3.619658,-0.414541
8411,-8.737775,3.833460,-0.524452
8412,-8.518802,4.099150,-0.550862
8413,-8.303269,4.374692,-0.600286
8414,-8.075664,4.153496,-1.015670
8415,-7.873944,3.933155,-1.434660
8416,-7.702005,3.703992,-1.856714
8417,-7.567033,3.456593,-2.279741
8418,-7.458685,3.195757,-2.720084
8419,-7.298152,3.002087,-3.199316
8420,-7.321051,2.663212,-3.646320
8421,-7.299361,2.412011,-4.132948
8422,-7.300529,2.182113,-4.647451
8423,-8.160771,-1.372172,-5.601059
8424,-8.267271,-1.444243,-5.318771
8425,-8.360735,-1.349657,-5.028148
8426,-8.496364,-1.244417,-4.663105
8427,-8.674529,-1.190315,-4.233455
8428,-8.888010,-1.207261,-3.764486
8429,-9.114220,-1.253608,-3.319520
8430,-9.431958,-1.758706,-2.750141
8431,-9.334896,-1.307494,-2.920304
8432,-9.655442,-2.189633,-2.437557
8433,-9.843731,-2.607930,-2.261616
8434,-9.986370,-2.988189,-2.216597
8435,-10.105446,-3.315476,-2.238112
8436,-10.252479,-3.655228,-2.231173
8437,-10.490286,-3.681799,-1.734400
8438,-10.773399,-3.746133,-1.289558
8439,-8.293694,3.884445,-0.956177
8440,-8.091154,3.667241,-1.373674
8441,-7.922547,3.450152,-1.786444
8442,-7.803763,3.213816,-2.194036
8443,-7.723864,2.959199,-2.614237
8444,-7.630039,2.694405,-3.127670
8445,-7.630326,2.382226,-3.669053
8446,-7.580346,2.201003,-4.141189
8447,-7.735071,1.942913,-4.654635
8448,-7.945915,2.037237,-4.029731
8449,-8.308299,1.909944,-3.850172
8450,-8.638251,1.786175,-3.733635
8451,-8.915906,1.708427,-3.573331
8452,-9.286214,1.560669,-3.670955
8453,-9.662870,1.521653,-3.506331
8454,-10.049848,1.603763,-3.326186
8455,-10.437636,1.665018,-3.551886
8456,-10.736063,1.704080,-3.702596
8457,-10.975717,1.660351,-3.478743
8458,-11.153605,1.456251,-3.274278
8459,-11.289178,1.212131,-3.114329
8460,-11.286176,0.929649,-3.165985
8461,-11.375958,1.025725,-2.970521
8462,-11.117149,0.751993,-3.229710
8463,-10.812177,0.703405,-3.510007
8464,-10.485489,0.607636,-3.361499
8465,-10.175976,0.427672,-3.151489
8466,-9.822402,0.286405,-3.301532
8467,-9.486423,0.085896,-3.497887
8468,-9.328726,-0.284359,-3.383704
8469,-9.039466,-0.428344,-3.776567
8470,-9.195112,-0.597942,-3.402982
8471,-8.832292,-0.364548,-4.219099
8472,-8.678425,-0.244400,-4.621377
8473,-8.504267,-0.369237,-4.933869
8474,-8.314434,-0.525714,-5.318133
8475,-10.632459,-3.368255,-1.333828
8476,-10.569777,-3.005109,-1.277943
8477,-10.505746,-2.619320,-1.248366
8478,-10.360724,-2.162972,-1.365977
8479,-10.576919,-1.754853,-1.114359
8480,-10.660983,-1.373332,-1.076995
8481,-10.665616,-1.048925,-1.168123
8482,-10.732199,-0.701595,-1.253919
8483,-10.802648,-0.359588,-1.414119
8484,-10.891597,-0.014704,-1.667702
8485,-11.069009,0.301716,-1.940152
8486,-11.311962,0.557527,-2.179041
8487,-11.513453,0.819628,-2.384432
8488,-11.641555,1.114980,-2.294955
8489,-11.566620,1.360724,-2.363127
8490,-11.401313,1.629897,-2.393191
8491,-11.106253,1.820719,-2.492190
8492,-10.859577,1.934822,-2.161224
8493,-10.552292,1.991556,-1.886379
8494,-10.243376,2.080316,-1.636916
8495,-9.951585,2.229043,-1.421259
8496,-9.677790,2.423536,-1.247060
8497,-9.422871,2.646628,-1.108907
8498,-9.182149,2.882370,-1.012119
8499,-8.955060,3.121369,-0.953572
8500,-8.736708,3.422348,-0.874099
8501,-8.508767,3.698828,-0.866230
8502,-8.600636,-0.715784,-4.519899
8503,-8.394787,-0.882011,-4.950061
8504,-8.221618,-1.064911,-5.383189
8505,-10.341898,-3.327348,-1.782037
8506,-10.252976,-2.976106,-1.734134
8507,-10.145615,-2.577809,-1.742927
8508,-9.961750,-2.032380,-1.912580
8509,-10.177241,-1.633042,-1.605172
8510,-10.370839,-1.320471,-1.420212
8511,-10.381395,-0.947413,-1.527857
8512,-10.459708,-0.646301,-1.592275
8513,-10.501802,-0.350368,-1.775631
8514,-10.526077,0.008554,-2.149962
8515,-10.804622,0.377195,-2.446876
8516,-11.093478,0.599938,-2.741119
8517,-11.342146,0.811974,-2.890066
8518,-11.488789,1.038519,-2.657784
8519,-11.404054,1.300184,-2.764035
8520,-11.243813,1.562668,-2.853148
8521,-10.952111,1.767989,-3.029677
8522,-10.657106,1.857897,-2.661241
8523,-10.319047,1.887866,-2.347233
8524,-10.005300,1.957900,-2.068852
8525,-9.719978,2.088274,-1.847646
8526,-9.444002,2.268174,-1.689493
8527,-9.184046,2.488185,-1.552524
8528,-8.961373,2.724180,-1.424981
8529,-8.751837,2.950611,-1.352472
8530,-8.599986,3.172848,-1.263173
8531,-8.362491,3.419622,-1.282433
8532,-8.150569,3.219547,-1.735082
8533,-8.043862,2.999187,-2.123971
8534,-7.994944,2.754303,-2.518987
8535,-7.968764,2.505779,-2.952832
8536,-7.958868,2.266924,-3.436188
8537,-8.290686,2.108245,-3.321140
8538,-8.666543,1.976263,-3.123064
8539,-9.064196,1.779387,-3.131587
8540,-9.358189,1.655061,-3.180273
8541,-9.648284,1.656134,-3.027684
8542,-10.070268,1.753268,-2.813426
8543,-10.502274,1.766118,-3.126850
8544,-10.751705,1.785630,-3.364287
8545,-8.873507,-0.774332,-3.917516
8546,-9.119806,-0.920742,-3.393016
8547,-9.330107,-1.012444,-2.991538
8548,-9.447747,-1.093381,-2.765246
8549,-9.534404,-1.270828,-2.590769
8550,-9.695748,-1.611822,-2.299468
8551,-9.788446,1.836671,-2.472319
8552,-9.500177,1.958656,-2.271290
8553,-9.297366,2.119474,-2.077247
8554,-8.953740,2.314334,-2.061930
8555,-8.757990,2.591476,-1.819212
8556,-8.627826,2.800097,-1.669972
8557,-8.414779,3.011306,-1.654517
8558,-8.279189,2.834753,-2.034563
8559,-8.269207,2.599226,-2.388976
8560,-8.282200,2.343100,-2.821445
8561,-10.833721,0.602104,-3.137191
8562,-10.601177,0.487429,-2.924269
8563,-10.325769,0.234019,-2.676469
8564,-9.968345,0.063963,-2.826833
8565,-9.665749,-0.181378,-2.962217
8566,-9.468798,-0.474837,-3.018843
8567,-9.398404,-0.741508,-2.983958
8568,-10.120723,-0.178074,-2.393656
8569,-9.874240,-0.395737,-2.494931
8570,-9.663310,-0.648340,-2.618951
8571,-9.533902,-0.940180,-2.676939
8572,-10.236594,-0.435930,-2.020667
8573,-10.027140,-0.633355,-2.131583
8574,-9.862635,-0.866489,-2.218826
8575,-9.705992,-1.095594,-2.360491
8576,-9.898473,-1.381204,-2.014327
8577,-10.206699,-0.759519,-1.824219
8578,-10.310030,-0.588167,-1.801391
8579,-8.603701,2.271336,-2.539851
8580,-9.028959,2.019331,-2.559774
8581,-9.380245,1.802142,-2.732218
8582,-9.668430,1.746402,-2.732025
8583,-8.531718,2.537248,-2.157657
8584,-8.478715,2.741918,-1.914974
8585,-8.894974,1.444303,-6.218474
8586,-9.036357,1.421711,-5.834900
8587,-10.088270,-1.088145,-1.833753
*Element, type=R3D3
1,1,2,3
2,4,3,2
3,5,4,6
4,2,6,4
5,7,5,8
6,6,8,5
7,9,7,10
8,8,10,7
9,10,11,9
10,12,9,11
11,13,12,14
12,11,14,12
13,14,15,13
14,13,15,16
15,17,16,18
16,18,16,15
17,17,18,19
18,20,19,18
19,21,22,20
20,19,20,22
21,22,21,23
22,24,23,21
23,25,26,24
24,23,24,26
25,26,25,27
26,28,27,25
27,29,30,28
28,27,28,30
29,31,32,29
30,30,29,32
31,31,33,32
32,34,32,33
33,33,35,34
34,36,34,35
35,37,38,35
36,36,35,38
37,39,40,37
38,38,37,40
39,41,42,39
40,40,39,42
41,41,43,42
42,44,42,43
43,45,46,43
44,44,43,46
45,46,45,47
46,45,48,47
47,49,50,48
48,50,47,48
49,50,49,51
50,52,51,49
51,53,54,52
52,51,52,54
53,54,53,55
54,56,55,53
55,57,58,56
56,55,56,58
57,58,57,59
58,60,59,57
59,61,62,60
60,59,60,62
61,63,64,61
62,61,64,62
63,63,65,64
64,66,64,65
65,65,67,66
66,68,66,67
67,69,68,70
68,67,70,68
69,70,71,69
70,72,69,71
71,72,71,73
72,74,73,71
73,73,74,75
74,75,74,76
75,77,78,76
76,75,76,78
77,78,77,79
78,80,79,77
79,81,82,80
80,79,80,82
81,82,81,83
82,84,83,81
83,83,84,85
84,86,85,84
85,87,88,86
86,85,86,88
87,87,89,88
88,90,88,89
89,89,91,90
90,92,90,91
91,93,92,94
92,94,92,91
93,94,95,93
94,96,93,95
95,95,97,96
96,98,96,97
97,99,100,97
98,98,97,100
99,101,102,99
100,99,102,100
101,102,101,103
102,104,103,101
103,105,106,104
104,103,104,106
105,107,108,105
106,108,106,105
107,108,107,109
108,110,109,107
109,111,112,110
110,109,110,112
111,113,114,111
112,112,111,114
113,115,116,113
114,114,113,116
115,115,117,116
116,118,116,117
117,119,120,117
118,120,118,117
119,119,121,120
120,120,121,122
121,123,122,124
122,121,124,122
123,123,124,125
124,126,125,124
125,127,128,126
126,125,126,128
127,129,130,127
128,130,128,127
129,130,129,131
130,132,131,129
131,132,133,131
132,134,131,133
133,135,136,133
134,134,133,136
135,136,135,137
136,137,135,138
137,139,140,138
138,138,140,137
139,139,141,140
140,142,140,141
141,143,144,141
142,142,141,144
143,145,146,143
144,144,143,146
145,145,147,146
146,148,146,147
147,148,147,149
148,150,149,147
149,150,151,149
150,149,151,152
151,153,154,151
152,152,151,154
153,155,154,156
154,153,156,154
155,156,157,155
156,158,155,157
157,157,159,158
158,160,158,159
159,161,160,162
160,159,162,160
161,163,161,164
162,162,164,161
163,164,165,163
164,163,165,166
165,167,168,165
166,168,166,165
167,168,167,169
168,167,170,169
169,170,171,169
170,172,169,171
171,173,172,174
172,171,174,172
173,175,173,176
174,176,173,174
175,176,177,175
176,178,175,177
177,179,180,177
178,178,177,180
179,180,179,181
180,179,182,181
181,181,182,183
182,184,183,182
183,183,184,185
184,186,185,184
185,185,186,187
186,188,187,186
187,189,190,188
188,187,188,190
189,190,189,191
190,192,191,189
191,193,194,192
192,192,194,191
193,193,195,194
194,196,194,195
195,196,195,197
196,198,197,195
197,199,197,200
198,198,200,197
199,201,199,202
200,200,202,199
201,203,201,204
202,202,204,201
203,204,205,203
204,206,203,205
205,205,207,206
206,208,206,207
207,209,210,207
208,208,207,210
209,211,212,209
210,210,209,212
211,213,214,211
212,212,211,214
213,215,216,213
214,214,213,216
215,215,217,216
216,218,216,217
217,219,218,220
218,220,218,217
219,220,221,219
220,222,219,221
221,223,222,224
222,224,222,221
223,224,225,223
224,226,223,225
225,227,226,228
226,225,228,226
227,229,230,228
228,227,228,230
229,230,229,231
230,232,231,229
231,231,232,233
232,234,233,232
233,233,234,235
234,236,235,234
235,237,238,236
236,235,236,238
237,239,240,237
238,240,238,237
239,241,242,239
240,240,239,242
241,243,244,241
242,241,244,242
243,245,246,243
244,243,246,244
245,246,245,247
246,248,247,245
247,248,249,247
248,250,247,249
249,251,250,252
250,249,252,250
251,253,251,254
252,252,254,251
253,255,253,256
254,254,256,253
255,257,255,258
256,256,258,255
257,259,257,260
258,258,260,257
259,261,259,262
260,260,262,259
261,263,264,262
262,261,262,264
263,264,263,265
264,266,265,263
265,265,266,267
266,268,267,266
267,269,270,268
268,267,268,270
269,271,272,269
270,269,272,270
271,271,273,272
272,274,272,273
273,275,274,276
274,273,276,274
275,277,275,278
276,276,278,275
277,278,279,277
278,280,277,279
279,279,281,280
280,282,280,281
281,283,282,284
282,281,284,282
283,285,286,284
284,284,286,283
285,287,288,285
286,286,285,288
287,289,288,290
288,287,290,288
289,289,290,291
290,292,291,290
291,293,294,292
292,291,292,294
293,295,296,293
294,294,293,296
295,296,295,297
296,298,297,295
297,298,299,297
298,300,297,299
299,299,301,300
300,300,301,302
301,301,303,302
302,304,302,303
303,303,305,304
304,306,304,305
305,305,307,306
306,308,306,307
307,307,309,308
308,308,309,310
309,309,311,310
310,312,310,311
311,3,4,313
312,314,313,4
313,315,314,5
314,5,314,4
315,316,315,7
316,5,7,315
317,317,316,9
318,7,9,316
319,12,318,9
320,317,9,318
321,12,13,318
322,319,318,13
323,319,13,320
324,16,320,13
325,320,16,321
326,17,321,16
327,19,322,17
328,321,17,322
329,322,19,323
330,22,323,19
331,323,22,324
332,23,324,22
333,26,325,23
334,324,23,325
335,325,26,326
336,27,326,26
337,30,327,27
338,326,27,327
339,30,32,327
340,328,327,32
341,32,34,328
342,329,328,34
343,34,36,329
344,330,329,36
345,331,330,38
346,36,38,330
347,332,331,40
348,38,40,331
349,332,40,333
350,42,333,40
351,333,42,334
352,44,334,42
353,334,44,335
354,46,335,44
355,47,336,46
356,335,46,336
357,336,47,337
358,50,337,47
359,51,338,50
360,337,50,338
361,339,338,54
362,338,51,54
363,55,340,54
364,339,54,340
365,340,55,341
366,58,341,55
367,59,342,58
368,341,58,342
369,62,343,59
370,342,59,343
371,64,344,62
372,343,62,344
373,344,64,345
374,66,345,64
375,345,66,346
376,68,346,66
377,69,347,68
378,346,68,347
379,72,348,69
380,347,69,348
381,73,349,72
382,348,72,349
383,75,350,73
384,350,349,73
385,78,351,75
386,350,75,351
387,351,78,352
388,78,79,352
389,352,79,353
390,82,353,79
391,83,354,82
392,353,82,354
393,354,83,355
394,85,355,83
395,88,356,85
396,355,85,356
397,88,90,356
398,357,356,90
399,90,92,357
400,358,357,92
401,359,358,93
402,92,93,358
403,93,96,359
404,359,96,360
405,96,98,360
406,100,360,98
407,102,361,100
408,360,100,361
409,103,362,102
410,361,102,362
411,362,103,363
412,106,363,103
413,108,364,106
414,363,106,364
415,108,109,364
416,365,364,109
417,365,109,366
418,366,109,112
419,114,367,112
420,366,112,367
421,116,368,114
422,367,114,368
423,368,116,369
424,118,369,116
425,370,369,120
426,120,369,118
427,120,122,370
428,371,370,122
429,122,123,371
430,372,371,123
431,125,373,123
432,372,123,373
433,128,374,125
434,373,125,374
435,374,128,375
436,130,375,128
437,376,375,131
438,130,131,375
439,136,376,134
440,131,134,376
441,137,377,136
442,376,136,377
443,377,137,378
444,378,137,140
445,142,379,140
446,378,140,379
447,379,142,380
448,144,380,142
449,381,380,146
450,144,146,380
451,146,148,381
452,382,381,148
453,149,383,148
454,382,148,383
455,383,149,384
456,152,384,149
457,385,384,154
458,152,154,384
459,155,386,154
460,386,385,154
461,387,386,158
462,158,386,155
463,158,160,387
464,388,387,160
465,389,388,161
466,160,161,388
467,390,389,163
468,161,163,389
469,163,166,390
470,391,390,166
471,392,391,168
472,166,168,391
473,393,392,169
474,168,169,392
475,169,172,393
476,393,172,394
477,395,394,173
478,172,173,394
479,173,175,395
480,396,395,175
481,175,178,396
482,397,396,178
483,397,178,398
484,398,178,180
485,398,180,399
486,181,399,180
487,399,181,400
488,400,181,183
489,185,401,183
490,400,183,401
491,401,185,402
492,187,402,185
493,190,403,187
494,402,187,403
495,403,190,404
496,191,404,190
497,404,191,405
498,194,405,191
499,196,406,194
500,405,194,406
501,197,407,196
502,406,196,407
503,197,199,407
504,408,407,199
505,199,201,408
506,409,408,201
507,203,410,201
508,409,201,410
509,203,206,410
510,411,410,206
511,206,208,411
512,412,411,208
513,210,413,208
514,412,208,413
515,414,413,212
516,212,413,210
517,415,414,214
518,212,214,414
519,214,216,415
520,416,415,216
521,216,218,416
522,417,416,218
523,218,219,417
524,417,219,418
525,419,418,222
526,219,222,418
527,420,419,223
528,222,223,419
529,421,420,226
530,223,226,420
531,422,421,227
532,226,227,421
533,230,423,227
534,422,227,423
535,423,230,424
536,231,424,230
537,424,231,425
538,233,425,231
539,425,233,426
540,235,426,233
541,426,235,427
542,427,235,238
543,427,238,428
544,428,238,240
545,428,240,429
546,242,429,240
547,244,430,242
548,429,242,430
549,430,244,431
550,246,431,244
551,432,431,247
552,246,247,431
553,247,250,432
554,433,432,250
555,434,433,251
556,250,251,433
557,435,434,253
558,253,434,251
559,436,435,255
560,435,253,255
561,437,436,257
562,255,257,436
563,438,437,259
564,257,259,437
565,439,438,261
566,438,259,261
567,440,439,264
568,439,261,264
569,265,441,264
570,440,264,441
571,441,265,442
572,267,442,265
573,442,267,443
574,270,443,267
575,443,270,444
576,272,444,270
577,272,274,444
578,445,444,274
579,274,275,445
580,446,445,275
581,275,277,446
582,447,446,277
583,448,447,280
584,277,280,447
585,449,448,282
586,280,282,448
587,282,283,449
588,450,449,283
589,450,283,451
590,286,451,283
591,452,451,288
592,286,288,451
593,288,289,452
594,453,452,289
595,289,291,453
596,454,453,291
597,455,454,294
598,294,454,291
599,294,296,455
600,456,455,296
601,296,297,456
602,456,297,457
603,300,458,297
604,457,297,458
605,459,458,302
606,300,302,458
607,460,459,304
608,302,304,459
609,461,460,306
610,304,306,460
611,306,308,461
612,461,308,462
613,463,462,310
614,308,310,462
615,310,312,463
616,463,312,464
617,313,314,465
618,466,465,314
619,315,467,314
620,466,314,467
621,468,469,317
622,469,316,317
623,470,468,318
624,317,318,468
625,471,470,319
626,318,319,470
627,319,320,471
628,472,471,320
629,472,320,473
630,321,473,320
631,321,322,473
632,474,473,322
633,323,475,322
634,474,322,475
635,324,476,323
636,475,323,476
637,325,477,324
638,476,324,477
639,326,478,325
640,478,477,325
641,327,479,326
642,478,326,479
643,327,328,479
644,480,479,328
645,481,480,329
646,328,329,480
647,482,481,330
648,329,330,481
649,330,331,482
650,483,482,331
651,484,483,332
652,331,332,483
653,484,332,485
654,333,485,332
655,485,333,486
656,486,333,334
657,335,487,334
658,486,334,487
659,336,488,335
660,487,335,488
661,337,489,336
662,488,336,489
663,338,490,337
664,489,337,490
665,490,338,491
666,339,491,338
667,491,339,492
668,340,492,339
669,492,340,493
670,493,340,341
671,342,494,341
672,493,341,494
673,343,495,342
674,494,342,495
675,344,496,343
676,495,343,496
677,345,497,344
678,496,344,497
679,346,498,345
680,497,345,498
681,347,499,346
682,498,346,499
683,499,347,500
684,500,347,348
685,349,501,348
686,500,348,501
687,501,349,502
688,349,350,502
689,502,350,503
690,351,503,350
691,353,504,352
692,505,352,504
693,504,353,506
694,354,506,353
695,506,354,507
696,355,507,354
697,356,508,355
698,355,508,507
699,356,357,508
700,509,508,357
701,357,358,509
702,510,509,358
703,358,359,510
704,511,510,359
705,512,511,360
706,360,511,359
707,512,360,513
708,361,513,360
709,362,514,361
710,513,361,514
711,514,362,515
712,363,515,362
713,515,363,516
714,364,516,363
715,364,365,516
716,517,516,365
717,517,365,518
718,366,518,365
719,518,366,519
720,367,519,366
721,368,520,367
722,519,367,520
723,369,521,368
724,368,521,520
725,369,370,521
726,522,521,370
727,371,523,370
728,522,370,523
729,523,371,524
730,372,524,371
731,524,372,525
732,373,525,372
733,525,373,526
734,374,526,373
735,375,527,374
736,526,374,527
737,527,375,528
738,376,528,375
739,377,529,376
740,376,529,528
741,529,377,530
742,530,377,378
743,379,531,378
744,530,378,531
745,380,532,379
746,531,379,532
747,380,381,532
748,533,532,381
749,382,534,381
750,533,381,534
751,382,383,534
752,535,534,383
753,384,536,383
754,535,383,536
755,385,537,384
756,536,384,537
757,538,537,386
758,385,386,537
759,539,540,388
760,388,540,387
761,388,389,539
762,541,539,389
763,542,541,390
764,389,390,541
765,542,390,543
766,391,543,390
767,543,391,544
768,392,544,391
769,545,544,393
770,392,393,544
771,546,547,395
772,394,395,547
773,548,546,396
774,395,396,546
775,549,548,397
776,396,397,548
777,399,550,398
778,551,398,550
779,550,399,552
780,400,552,399
781,553,401,554
782,402,554,401
783,554,402,555
784,403,555,402
785,404,556,403
786,403,556,555
787,556,404,557
788,405,557,404
789,406,558,405
790,557,405,558
791,407,559,406
792,558,406,559
793,407,408,559
794,559,408,560
795,408,409,560
796,561,560,409
797,409,410,561
798,562,561,410
799,563,562,411
800,410,411,562
801,411,412,563
802,564,563,412
803,413,565,412
804,564,412,565
805,413,414,565
806,566,565,414
807,567,566,415
808,414,415,566
809,415,416,567
810,568,567,416
811,416,417,568
812,569,568,417
813,417,418,569
814,570,569,418
815,571,570,419
816,418,419,570
817,572,571,420
818,419,420,571
819,573,572,421
820,421,572,420
821,574,573,422
822,421,422,573
823,423,575,422
824,575,574,422
825,424,576,423
826,575,423,576
827,576,424,577
828,425,577,424
829,577,425,578
830,426,578,425
831,578,426,579
832,579,426,427
833,579,427,580
834,428,580,427
835,580,428,581
836,429,581,428
837,430,582,429
838,581,429,582
839,431,583,430
840,582,430,583
841,431,432,583
842,584,583,432
843,432,433,584
844,585,584,433
845,586,585,434
846,433,434,585
847,587,586,435
848,434,435,586
849,588,587,436
850,435,436,587
851,589,588,437
852,436,437,588
853,590,589,438
854,437,438,589
855,438,439,590
856,591,590,439
857,592,591,440
858,439,440,591
859,592,440,593
860,441,593,440
861,593,441,594
862,594,441,442
863,594,442,595
864,443,595,442
865,595,443,596
866,596,443,444
867,444,445,596
868,597,596,445
869,598,597,446
870,445,446,597
871,599,598,447
872,446,447,598
873,600,599,448
874,448,599,447
875,601,600,449
876,448,449,600
877,602,601,450
878,449,450,601
879,602,450,603
880,451,603,450
881,604,603,452
882,451,452,603
883,605,604,453
884,452,453,604
885,453,454,605
886,606,605,454
887,454,455,606
888,607,606,455
889,455,456,607
890,608,607,456
891,456,457,608
892,609,608,457
893,458,610,457
894,610,609,457
895,611,610,459
896,458,459,610
897,612,611,460
898,459,460,611
899,460,461,612
900,612,461,613
901,461,462,613
902,613,462,614
903,615,614,463
904,463,614,462
905,616,615,464
906,615,463,464
907,617,616,618
908,618,616,464
909,618,464,619
910,312,619,464
911,620,621,622
912,623,622,621
913,624,625,623
914,622,623,625
915,625,624,626
916,624,627,626
917,628,629,627
918,627,629,626
919,629,628,630
920,631,630,628
921,632,630,633
922,631,633,630
923,633,634,632
924,632,634,635
925,636,637,634
926,635,634,637
927,636,638,637
928,637,638,639
929,640,641,638
930,638,641,639
931,642,643,640
932,641,640,643
933,644,645,642
934,645,643,642
935,644,646,645
936,647,645,646
937,646,648,647
938,649,647,648
939,650,651,648
940,649,648,651
941,652,653,650
942,651,650,653
943,654,655,652
944,653,652,655
945,656,657,654
946,655,654,657
947,658,657,659
948,656,659,657
949,660,658,661
950,661,658,659
951,662,660,663
952,661,663,660
953,664,665,663
954,662,663,665
955,664,666,665
956,667,665,666
957,666,668,667
958,669,667,668
959,666,670,668
960,671,668,670
961,469,672,316
962,315,316,672
963,467,315,673
964,672,673,315
965,351,352,674
966,505,674,352
967,351,674,503
968,675,503,674
969,676,677,678
970,679,678,677
971,677,680,679
972,681,679,680
973,682,683,680
974,681,680,683
975,684,685,682
976,685,683,682
977,686,687,684
978,685,684,687
979,688,689,686
980,687,686,689
981,690,691,688
982,689,688,691
983,692,693,690
984,691,690,693
985,694,695,692
986,695,693,692
987,696,697,694
988,697,695,694
989,697,696,698
990,699,698,696
991,700,701,699
992,698,699,701
993,702,703,700
994,701,700,703
995,704,705,702
996,703,702,705
997,706,707,704
998,705,704,707
999,708,709,706
1000,707,706,709
1001,709,708,710
1002,711,710,708
1003,712,710,713
1004,713,710,711
1005,714,712,715
1006,713,715,712
1007,715,716,714
1008,717,714,716
1009,714,717,718
1010,719,718,717
1011,718,719,720
1012,721,720,719
1013,722,723,721
1014,720,721,723
1015,723,722,724
1016,725,724,722
1017,726,727,725
1018,724,725,727
1019,727,726,728
1020,729,728,726
1021,730,731,729
1022,729,731,728
1023,732,733,730
1024,731,730,733
1025,733,732,734
1026,734,732,735
1027,736,737,735
1028,734,735,737
1029,737,736,738
1030,739,738,736
1031,740,741,739
1032,738,739,741
1033,742,743,740
1034,741,740,743
1035,744,745,742
1036,743,742,745
1037,746,747,744
1038,747,745,744
1039,748,749,746
1040,747,746,749
1041,749,748,750
1042,751,750,748
1043,752,753,751
1044,750,751,753
1045,754,755,752
1046,752,755,753
1047,755,754,756
1048,756,754,757
1049,758,759,757
1050,756,757,759
1051,760,761,758
1052,759,758,761
1053,762,763,760
1054,761,760,763
1055,764,765,762
1056,763,762,765
1057,766,767,764
1058,765,764,767
1059,768,769,766
1060,767,766,769
1061,770,771,768
1062,769,768,771
1063,772,773,770
1064,771,770,773
1065,773,772,774
1066,775,774,772
1067,776,777,775
1068,774,775,777
1069,777,776,778
1070,779,778,776
1071,778,779,780
1072,781,780,779
1073,780,781,782
1074,783,782,781
1075,782,783,784
1076,784,783,785
1077,784,785,786
1078,787,786,785
1079,788,789,787
1080,786,787,789
1081,790,791,788
1082,788,791,789
1083,792,793,790
1084,791,790,793
1085,794,795,792
1086,793,792,795
1087,796,797,794
1088,795,794,797
1089,798,799,796
1090,797,796,799
1091,800,801,798
1092,799,798,801
1093,802,803,800
1094,801,800,803
1095,804,805,802
1096,803,802,805
1097,806,807,804
1098,805,804,807
1099,808,809,806
1100,807,806,809
1101,810,811,808
1102,809,808,811
1103,812,813,810
1104,811,810,813
1105,814,815,812
1106,812,815,813
1107,816,817,814
1108,815,814,817
1109,818,819,816
1110,817,816,819
1111,820,821,818
1112,819,818,821
1113,822,823,820
1114,821,820,823
1115,824,825,822
1116,823,822,825
1117,826,827,824
1118,825,824,827
1119,828,829,826
1120,827,826,829
1121,830,831,828
1122,829,828,831
1123,832,833,830
1124,830,833,831
1125,834,835,832
1126,835,833,832
1127,836,837,834
1128,834,837,835
1129,838,839,836
1130,837,836,839
1131,840,841,838
1132,839,838,841
1133,842,843,840
1134,841,840,843
1135,844,845,842
1136,842,845,843
1137,846,847,844
1138,845,844,847
1139,848,849,846
1140,847,846,849
1141,850,851,848
1142,848,851,849
1143,851,850,852
1144,853,852,850
1145,852,853,854
1146,855,854,853
1147,854,855,856
1148,856,855,857
1149,856,857,858
1150,859,858,857
1151,858,859,860
1152,861,860,859
1153,862,860,863
1154,860,861,863
1155,864,862,865
1156,865,862,863
1157,866,864,867
1158,865,867,864
1159,867,868,866
1160,869,866,868
1161,868,870,869
1162,871,869,870
1163,872,871,873
1164,870,873,871
1165,873,874,872
1166,875,872,874
1167,874,876,875
1168,876,877,875
1169,878,877,879
1170,876,879,877
1171,879,880,878
1172,878,880,881
1173,880,882,881
1174,882,883,881
1175,884,883,885
1176,885,883,882
1177,885,886,884
1178,884,886,887
1179,886,888,887
1180,888,889,887
1181,890,889,891
1182,888,891,889
1183,891,892,890
1184,893,890,892
1185,892,894,893
1186,895,893,894
1187,896,895,897
1188,894,897,895
1189,897,898,896
1190,899,896,898
1191,898,900,899
1192,901,899,900
1193,902,901,903
1194,900,903,901
1195,903,904,902
1196,902,904,905
1197,904,906,905
1198,907,905,906
1199,908,907,909
1200,906,909,907
1201,909,910,908
1202,911,908,910
1203,910,912,911
1204,913,911,912
1205,914,913,915
1206,912,915,913
1207,915,916,914
1208,914,916,917
1209,916,918,917
1210,918,919,917
1211,920,919,921
1212,918,921,919
1213,921,922,920
1214,923,920,922
1215,922,924,923
1216,925,923,924
1217,926,925,927
1218,924,927,925
1219,927,928,926
1220,929,926,928
1221,928,930,929
1222,931,929,930
1223,932,931,933
1224,931,930,933
1225,933,934,932
1226,935,932,934
1227,934,936,935
1228,936,937,935
1229,938,937,939
1230,936,939,937
1231,939,940,938
1232,941,938,940
1233,940,942,941
1234,943,941,942
1235,944,943,945
1236,942,945,943
1237,945,946,944
1238,947,944,946
1239,946,948,947
1240,949,947,948
1241,950,949,951
1242,951,949,948
1243,952,950,953
1244,951,953,950
1245,954,952,955
1246,953,955,952
1247,955,956,954
1248,957,954,956
1249,958,957,959
1250,956,959,957
1251,960,958,961
1252,959,961,958
1253,962,960,963
1254,961,963,960
1255,963,964,962
1256,962,964,965
1257,964,966,965
1258,967,965,966
1259,966,968,967
1260,969,967,968
1261,968,970,969
1262,971,969,970
1263,970,972,971
1264,973,971,972
1265,972,974,973
1266,975,973,974
1267,678,679,670
1268,671,670,679
1269,973,975,976
1270,975,977,976
1271,977,978,976
1272,979,976,978
1273,978,980,979
1274,980,981,979
1275,982,981,983
1276,980,983,981
1277,984,985,983
1278,982,983,985
1279,986,987,984
1280,985,984,987
1281,988,989,986
1282,987,986,989
1283,990,991,988
1284,989,988,991
1285,992,993,990
1286,991,990,993
1287,994,995,992
1288,993,992,995
1289,996,997,994
1290,995,994,997
1291,997,996,466
1292,465,466,996
1293,621,620,619
1294,998,619,620
1295,622,999,620
1296,998,620,999
1297,625,1000,622
1298,999,622,1000
1299,626,629,1001
1300,1002,1001,629
1301,629,630,1002
1302,1003,1002,630
1303,630,632,1003
1304,1004,1003,632
1305,1004,632,1005
1306,635,1005,632
1307,637,1006,635
1308,1005,635,1006
1309,639,1007,637
1310,1006,637,1007
1311,641,1008,639
1312,1007,639,1008
1313,643,1009,641
1314,1008,641,1009
1315,645,1010,643
1316,1009,643,1010
1317,645,647,1010
1318,1011,1010,647
1319,647,649,1011
1320,1011,649,651
1321,625,626,1012
1322,1001,1012,626
1323,1000,625,1013
1324,1012,1013,625
1325,1014,683,1015
1326,683,685,1015
1327,685,687,1015
1328,1016,1015,687
1329,687,689,1016
1330,1016,689,1017
1331,691,1018,689
1332,1017,689,1018
1333,693,1019,691
1334,1018,691,1019
1335,695,1020,693
1336,1019,693,1020
1337,697,1021,695
1338,695,1021,1020
1339,698,1022,697
1340,1022,1021,697
1341,701,1023,698
1342,1022,698,1023
1343,703,1024,701
1344,1023,701,1024
1345,705,1025,703
1346,1024,703,1025
1347,1026,1025,707
1348,707,1025,705
1349,1027,1026,709
1350,707,709,1026
1351,1028,1027,710
1352,709,710,1027
1353,1029,1028,712
1354,710,712,1028
1355,712,714,1029
1356,718,1029,714
1357,653,1030,651
1358,1011,651,1030
1359,1030,653,1031
1360,655,1031,653
1361,1032,1031,657
1362,655,657,1031
1363,1033,1032,658
1364,657,658,1032
1365,1034,1033,660
1366,658,660,1033
1367,1035,1034,662
1368,660,662,1034
1369,1036,1035,665
1370,665,1035,662
1371,665,667,1036
1372,1037,1036,667
1373,667,669,1037
1374,1038,1037,669
1375,669,1039,1038
1376,1040,1038,1039
1377,668,1014,669
1378,1039,669,1014
1379,1041,400,553
1380,401,553,400
1381,400,1041,552
1382,1042,552,1041
1383,393,394,1043
1384,547,1043,394
1385,393,1043,545
1386,1044,545,1043
1387,386,387,1045
1388,540,1045,387
1389,1046,538,1045
1390,1045,538,386
1391,398,551,397
1392,551,1047,397
1393,397,1047,549
1394,1048,549,1047
1395,1029,718,1049
1396,1049,718,720
1397,1049,720,1050
1398,723,1050,720
1399,1050,723,1051
1400,724,1051,723
1401,1051,724,1052
1402,1052,724,727
1403,1052,727,1053
1404,1053,727,728
1405,731,1054,728
1406,1053,728,1054
1407,733,1055,731
1408,1054,731,1055
1409,734,1056,733
1410,1055,733,1056
1411,737,1057,734
1412,1056,734,1057
1413,738,1058,737
1414,1057,737,1058
1415,741,1059,738
1416,1058,738,1059
1417,743,1060,741
1418,1059,741,1060
1419,745,1061,743
1420,1060,743,1061
1421,747,1062,745
1422,1061,745,1062
1423,749,1063,747
1424,1062,747,1063
1425,750,1064,749
1426,1063,749,1064
1427,753,1065,750
1428,1064,750,1065
1429,755,1066,753
1430,1065,753,1066
1431,756,1067,755
1432,1066,755,1067
1433,759,1068,756
1434,756,1068,1067
1435,761,1069,759
1436,1068,759,1069
1437,763,1070,761
1438,1069,761,1070
1439,765,1071,763
1440,1070,763,1071
1441,767,1072,765
1442,1071,765,1072
1443,769,1073,767
1444,1072,767,1073
1445,771,1074,769
1446,769,1074,1073
1447,773,1075,771
1448,1074,771,1075
1449,774,1076,773
1450,1075,773,1076
1451,1076,774,1077
1452,777,1077,774
1453,778,1078,777
1454,777,1078,1077
1455,780,1079,778
1456,778,1079,1078
1457,1079,780,1080
1458,1080,780,782
1459,1080,782,1081
1460,784,1081,782
1461,786,1082,784
1462,1081,784,1082
1463,1082,786,1083
1464,789,1083,786
1465,791,1084,789
1466,789,1084,1083
1467,793,1085,791
1468,1084,791,1085
1469,1085,793,1086
1470,1086,793,795
1471,797,1087,795
1472,1086,795,1087
1473,799,1088,797
1474,1087,797,1088
1475,801,1089,799
1476,1089,1088,799
1477,803,1090,801
1478,1090,1089,801
1479,805,1091,803
1480,1090,803,1091
1481,807,1092,805
1482,1091,805,1092
1483,809,1093,807
1484,1093,1092,807
1485,811,1094,809
1486,1093,809,1094
1487,813,1095,811
1488,1094,811,1095
1489,815,1096,813
1490,813,1096,1095
1491,817,1097,815
1492,1096,815,1097
1493,819,1098,817
1494,817,1098,1097
1495,821,1099,819
1496,1098,819,1099
1497,823,1100,821
1498,1099,821,1100
1499,825,1101,823
1500,1101,1100,823
1501,827,1102,825
1502,825,1102,1101
1503,829,1103,827
1504,827,1103,1102
1505,831,1104,829
1506,1103,829,1104
1507,833,1105,831
1508,1104,831,1105
1509,835,1106,833
1510,1105,833,1106
1511,837,1107,835
1512,1106,835,1107
1513,839,1108,837
1514,1108,1107,837
1515,841,1109,839
1516,1108,839,1109
1517,843,1110,841
1518,1109,841,1110
1519,845,1111,843
1520,1110,843,1111
1521,847,1112,845
1522,1111,845,1112
1523,849,1113,847
1524,1113,1112,847
1525,851,1114,849
1526,1113,849,1114
1527,852,1115,851
1528,851,1115,1114
1529,1115,852,1116
1530,854,1116,852
1531,1116,854,1117
1532,1117,854,856
1533,1117,856,1118
1534,858,1118,856
1535,1118,858,1119
1536,860,1119,858
1537,1120,1119,862
1538,860,862,1119
1539,1121,1120,864
1540,862,864,1120
1541,1122,1121,866
1542,864,866,1121
1543,1123,1122,869
1544,866,869,1122
1545,869,871,1123
1546,1124,1123,871
1547,871,872,1124
1548,872,1125,1124
1549,872,875,1125
1550,1126,1125,875
1551,875,877,1126
1552,1127,1126,877
1553,1128,1127,878
1554,877,878,1127
1555,878,881,1128
1556,1128,881,1129
1557,881,883,1129
1558,883,1130,1129
1559,883,884,1130
1560,1131,1130,884
1561,884,887,1131
1562,1132,1131,887
1563,887,889,1132
1564,1133,1132,889
1565,889,890,1133
1566,1134,1133,890
1567,890,893,1134
1568,1135,1134,893
1569,893,895,1135
1570,1136,1135,895
1571,895,896,1136
1572,1137,1136,896
1573,896,899,1137
1574,1138,1137,899
1575,899,901,1138
1576,1139,1138,901
1577,1140,1139,902
1578,902,1139,901
1579,902,905,1140
1580,1140,905,1141
1581,905,907,1141
1582,907,1142,1141
1583,1143,1142,908
1584,908,1142,907
1585,908,911,1143
1586,1144,1143,911
1587,911,913,1144
1588,1145,1144,913
1589,913,914,1145
1590,1146,1145,914
1591,914,917,1146
1592,1147,1146,917
1593,917,919,1147
1594,1148,1147,919
1595,919,920,1148
1596,1149,1148,920
1597,1150,1149,923
1598,923,1149,920
1599,923,925,1150
1600,1151,1150,925
1601,1152,1151,926
1602,925,926,1151
1603,926,929,1152
1604,929,1153,1152
1605,929,931,1153
1606,1154,1153,931
1607,1155,1154,932
1608,932,1154,931
1609,1156,1155,935
1610,932,935,1155
1611,1157,1156,937
1612,935,937,1156
1613,1158,1157,938
1614,1157,937,938
1615,1159,1158,941
1616,938,941,1158
1617,1160,1159,943
1618,941,943,1159
1619,1161,1160,944
1620,943,944,1160
1621,944,947,1161
1622,1161,947,1162
1623,947,949,1162
1624,1163,1162,949
1625,949,950,1163
1626,1164,1163,950
1627,950,952,1164
1628,1165,1164,952
1629,952,954,1165
1630,1166,1165,954
1631,1167,1166,957
1632,954,957,1166
1633,957,958,1167
1634,1168,1167,958
1635,1169,1168,960
1636,958,960,1168
1637,1170,1169,962
1638,960,962,1169
1639,962,965,1170
1640,1171,1170,965
1641,965,967,1171
1642,1172,1171,967
1643,967,969,1172
1644,1173,1172,969
1645,969,971,1173
1646,1174,1173,971
1647,971,973,1174
1648,976,1174,973
1649,1174,976,1175
1650,979,1175,976
1651,1175,979,1176
1652,981,1176,979
1653,1176,981,1177
1654,982,1177,981
1655,985,1178,982
1656,982,1178,1177
1657,987,1179,985
1658,1178,985,1179
1659,989,1180,987
1660,1179,987,1180
1661,991,1181,989
1662,1180,989,1181
1663,1181,991,1182
1664,993,1182,991
1665,995,1183,993
1666,1182,993,1183
1667,1183,995,1184
1668,997,1184,995
1669,1184,997,467
1670,466,467,997
1671,1185,1010,1030
1672,1011,1030,1010
1673,1030,1031,1185
1674,1185,1031,1186
1675,1031,1032,1186
1676,1187,1186,1032
1677,1032,1033,1187
1678,1188,1187,1033
1679,1033,1034,1188
1680,1189,1188,1034
1681,1190,1189,1035
1682,1034,1035,1189
1683,1191,1190,1036
1684,1035,1036,1190
1685,1192,1191,1037
1686,1036,1037,1191
1687,1037,1038,1192
1688,1193,1192,1038
1689,1038,1040,1193
1690,1194,1193,1040
1691,1040,1195,1194
1692,1196,1194,1195
1693,1195,1040,1197
1694,1039,1197,1040
1695,1014,1015,1039
1696,1197,1039,1015
1697,618,619,1198
1698,998,1198,619
1699,1198,998,1199
1700,999,1199,998
1701,1199,999,1200
1702,1000,1200,999
1703,1200,1000,1201
1704,1000,1013,1201
1705,1201,1013,1202
1706,1203,1202,1013
1707,1013,1012,1203
1708,1204,1203,1012
1709,1012,1001,1204
1710,1205,1204,1001
1711,1001,1002,1205
1712,1206,1205,1002
1713,1002,1003,1206
1714,1207,1206,1003
1715,1003,1004,1207
1716,1208,1207,1004
1717,1007,1209,1006
1718,1210,1006,1209
1719,1008,1211,1007
1720,1209,1007,1211
1721,1211,1008,1212
1722,1212,1008,1009
1723,1185,1212,1010
1724,1009,1010,1212
1725,1028,1029,1213
1726,1213,1029,1049
1727,1213,1049,1214
1728,1050,1214,1049
1729,1214,1050,1215
1730,1215,1050,1051
1731,1052,1216,1051
1732,1215,1051,1216
1733,1053,1217,1052
1734,1052,1217,1216
1735,1054,1218,1053
1736,1217,1053,1218
1737,1055,1219,1054
1738,1218,1054,1219
1739,1056,1220,1055
1740,1219,1055,1220
1741,1057,1221,1056
1742,1220,1056,1221
1743,1058,1222,1057
1744,1221,1057,1222
1745,1059,1223,1058
1746,1222,1058,1223
1747,1060,1224,1059
1748,1223,1059,1224
1749,1060,1061,1224
1750,1225,1224,1061
1751,1062,1226,1061
1752,1225,1061,1226
1753,1063,1227,1062
1754,1227,1226,1062
1755,1064,1228,1063
1756,1227,1063,1228
1757,1065,1229,1064
1758,1228,1064,1229
1759,1229,1065,1230
1760,1230,1065,1066
1761,1067,1231,1066
1762,1066,1231,1230
1763,1068,1232,1067
1764,1067,1232,1231
1765,1232,1068,1233
1766,1069,1233,1068
1767,1233,1069,1234
1768,1070,1234,1069
1769,1234,1070,1235
1770,1071,1235,1070
1771,1072,1236,1071
1772,1235,1071,1236
1773,1073,1237,1072
1774,1236,1072,1237
1775,1074,1238,1073
1776,1237,1073,1238
1777,1238,1074,1239
1778,1075,1239,1074
1779,1076,1240,1075
1780,1239,1075,1240
1781,1077,1241,1076
1782,1240,1076,1241
1783,1241,1077,1242
1784,1078,1242,1077
1785,1079,1243,1078
1786,1242,1078,1243
1787,1080,1244,1079
1788,1243,1079,1244
1789,1081,1245,1080
1790,1244,1080,1245
1791,1082,1246,1081
1792,1246,1245,1081
1793,1083,1247,1082
1794,1246,1082,1247
1795,1084,1248,1083
1796,1247,1083,1248
1797,1085,1249,1084
1798,1248,1084,1249
1799,1086,1250,1085
1800,1249,1085,1250
1801,1087,1251,1086
1802,1250,1086,1251
1803,1088,1252,1087
1804,1251,1087,1252
1805,1089,1253,1088
1806,1252,1088,1253
1807,1090,1254,1089
1808,1253,1089,1254
1809,1091,1255,1090
1810,1254,1090,1255
1811,1092,1256,1091
1812,1255,1091,1256
1813,1093,1257,1092
1814,1256,1092,1257
1815,1094,1258,1093
1816,1093,1258,1257
1817,1095,1259,1094
1818,1259,1258,1094
1819,1096,1260,1095
1820,1259,1095,1260
1821,1097,1261,1096
1822,1096,1261,1260
1823,1098,1262,1097
1824,1262,1261,1097
1825,1099,1263,1098
1826,1262,1098,1263
1827,1100,1264,1099
1828,1263,1099,1264
1829,1101,1265,1100
1830,1264,1100,1265
1831,1102,1266,1101
1832,1265,1101,1266
1833,1103,1267,1102
1834,1267,1266,1102
1835,1104,1268,1103
1836,1267,1103,1268
1837,1105,1269,1104
1838,1269,1268,1104
1839,1106,1270,1105
1840,1269,1105,1270
1841,1107,1271,1106
1842,1270,1106,1271
1843,1108,1272,1107
1844,1271,1107,1272
1845,1109,1273,1108
1846,1272,1108,1273
1847,1110,1274,1109
1848,1109,1274,1273
1849,1111,1275,1110
1850,1274,1110,1275
1851,1112,1276,1111
1852,1276,1275,1111
1853,1113,1277,1112
1854,1276,1112,1277
1855,1114,1278,1113
1856,1277,1113,1278
1857,1115,1279,1114
1858,1278,1114,1279
1859,1279,1115,1280
1860,1116,1280,1115
1861,1117,1281,1116
1862,1280,1116,1281
1863,1281,1117,1282
1864,1118,1282,1117
1865,1119,1283,1118
1866,1282,1118,1283
1867,1284,1283,1120
1868,1120,1283,1119
1869,1285,1284,1121
1870,1121,1284,1120
1871,1121,1122,1285
1872,1286,1285,1122
1873,1122,1123,1286
1874,1287,1286,1123
1875,1123,1124,1287
1876,1288,1287,1124
1877,1124,1125,1288
1878,1289,1288,1125
1879,1125,1126,1289
1880,1290,1289,1126
1881,1126,1127,1290
1882,1291,1290,1127
1883,1127,1128,1291
1884,1292,1291,1128
1885,1128,1129,1292
1886,1293,1292,1129
1887,1129,1130,1293
1888,1294,1293,1130
1889,1130,1131,1294
1890,1295,1294,1131
1891,1131,1132,1295
1892,1296,1295,1132
1893,1132,1133,1296
1894,1297,1296,1133
1895,1133,1134,1297
1896,1298,1297,1134
1897,1134,1135,1298
1898,1299,1298,1135
1899,1135,1136,1299
1900,1300,1299,1136
1901,1136,1137,1300
1902,1301,1300,1137
1903,1137,1138,1301
1904,1302,1301,1138
1905,1138,1139,1302
1906,1302,1139,1303
1907,1139,1140,1303
1908,1304,1303,1140
1909,1140,1141,1304
1910,1305,1304,1141
1911,1141,1142,1305
1912,1306,1305,1142
1913,1142,1143,1306
1914,1307,1306,1143
1915,1143,1144,1307
1916,1308,1307,1144
1917,1144,1145,1308
1918,1309,1308,1145
1919,1145,1146,1309
1920,1310,1309,1146
1921,1146,1147,1310
1922,1310,1147,1311
1923,1147,1148,1311
1924,1312,1311,1148
1925,1148,1149,1312
1926,1313,1312,1149
1927,1149,1150,1313
1928,1314,1313,1150
1929,1315,1314,1151
1930,1150,1151,1314
1931,1316,1315,1152
1932,1151,1152,1315
1933,1152,1153,1316
1934,1317,1316,1153
1935,1318,1317,1154
1936,1153,1154,1317
1937,1319,1318,1155
1938,1154,1155,1318
1939,1320,1319,1156
1940,1155,1156,1319
1941,1321,1320,1157
1942,1156,1157,1320
1943,1322,1321,1158
1944,1157,1158,1321
1945,1323,1322,1159
1946,1158,1159,1322
1947,1324,1323,1160
1948,1159,1160,1323
1949,1325,1324,1161
1950,1160,1161,1324
1951,1326,1325,1162
1952,1325,1161,1162
1953,1327,1326,1163
1954,1162,1163,1326
1955,1328,1327,1164
1956,1163,1164,1327
1957,1164,1165,1328
1958,1329,1328,1165
1959,1165,1166,1329
1960,1330,1329,1166
1961,1330,1166,1331
1962,1167,1331,1166
1963,1167,1168,1331
1964,1331,1168,1332
1965,1168,1169,1332
1966,1332,1169,1333
1967,1169,1170,1333
1968,1334,1333,1170
1969,1170,1171,1334
1970,1335,1334,1171
1971,1171,1172,1335
1972,1336,1335,1172
1973,1172,1173,1336
1974,1337,1336,1173
1975,1175,1337,1174
1976,1173,1174,1337
1977,1337,1175,1338
1978,1176,1338,1175
1979,1338,1176,1339
1980,1339,1176,1177
1981,1339,1177,1340
1982,1178,1340,1177
1983,1340,1178,1341
1984,1179,1341,1178
1985,1341,1179,1342
1986,1180,1342,1179
1987,1181,1343,1180
1988,1342,1180,1343
1989,1182,1344,1181
1990,1343,1181,1344
1991,1183,1345,1182
1992,1182,1345,1344
1993,1345,1183,1346
1994,1346,1183,1184
1995,1346,1184,673
1996,467,673,1184
1997,1015,1016,1197
1998,1347,1197,1016
1999,1016,1017,1347
2000,1348,1347,1017
2001,1017,1018,1348
2002,1349,1348,1018
2003,1350,1349,1019
2004,1018,1019,1349
2005,1351,1350,1020
2006,1019,1020,1350
2007,1021,1352,1020
2008,1351,1020,1352
2009,1022,1353,1021
2010,1352,1021,1353
2011,1023,1354,1022
2012,1353,1022,1354
2013,1024,1355,1023
2014,1354,1023,1355
2015,1025,1356,1024
2016,1356,1355,1024
2017,1026,1357,1025
2018,1356,1025,1357
2019,1358,1357,1027
2020,1026,1027,1357
2021,1213,1358,1028
2022,1027,1028,1358
2023,1338,1359,1337
2024,1336,1337,1359
2025,1339,1360,1338
2026,1359,1338,1360
2027,1340,1361,1339
2028,1360,1339,1361
2029,1341,1362,1340
2030,1361,1340,1362
2031,1362,1341,1363
2032,1342,1363,1341
2033,1343,1364,1342
2034,1363,1342,1364
2035,1344,1365,1343
2036,1364,1343,1365
2037,1365,1344,1366
2038,1345,1366,1344
2039,1346,1367,1345
2040,1366,1345,1367
2041,673,1368,1346
2042,1367,1346,1368
2043,673,672,1368
2044,1369,1368,672
2045,672,469,1369
2046,1370,1369,469
2047,1371,1370,468
2048,469,468,1370
2049,468,470,1371
2050,1372,1371,470
2051,470,471,1372
2052,1373,1372,471
2053,1373,471,1374
2054,472,1374,471
2055,1374,472,1375
2056,473,1375,472
2057,473,474,1375
2058,1376,1375,474
2059,1376,474,1377
2060,1377,474,475
2061,476,1378,475
2062,1377,475,1378
2063,1378,476,1379
2064,1379,476,477
2065,1379,477,1380
2066,478,1380,477
2067,1380,478,1381
2068,479,1381,478
2069,1382,1381,480
2070,479,480,1381
2071,480,481,1382
2072,1382,481,1383
2073,481,482,1383
2074,1384,1383,482
2075,1385,1384,483
2076,482,483,1384
2077,1386,1385,484
2078,483,484,1385
2079,1386,484,1387
2080,485,1387,484
2081,1387,485,1388
2082,486,1388,485
2083,1388,486,1389
2084,1389,486,487
2085,1389,487,1390
2086,488,1390,487
2087,489,1391,488
2088,1390,488,1391
2089,490,1392,489
2090,1391,489,1392
2091,1392,490,1393
2092,1393,490,491
2093,1393,491,1394
2094,492,1394,491
2095,1394,492,1395
2096,492,493,1395
2097,1395,493,495
2098,494,495,493
2099,496,1396,495
2100,495,1396,1395
2101,497,1397,496
2102,1396,496,1397
2103,498,1398,497
2104,497,1398,1397
2105,499,1399,498
2106,1398,498,1399
2107,1399,499,1400
2108,500,1400,499
2109,501,1401,500
2110,1400,500,1401
2111,1401,501,1402
2112,502,1402,501
2113,503,1403,502
2114,502,1403,1402
2115,503,675,1403
2116,1404,1403,675
2117,675,1405,1404
2118,1404,1405,1406
2119,1405,675,1407
2120,674,1407,675
2121,674,505,1407
2122,1408,1407,505
2123,1408,505,1409
2124,504,1409,505
2125,1409,504,1410
2126,506,1410,504
2127,1410,506,1411
2128,507,1411,506
2129,1411,507,1412
2130,1412,507,508
2131,508,509,1412
2132,1413,1412,509
2133,509,510,1413
2134,1414,1413,510
2135,510,511,1414
2136,1415,1414,511
2137,1416,1415,512
2138,511,512,1415
2139,513,1417,512
2140,1416,512,1417
2141,1417,513,1418
2142,1418,513,514
2143,515,1419,514
2144,1418,514,1419
2145,516,1420,515
2146,515,1420,1419
2147,516,517,1420
2148,1421,1420,517
2149,517,518,1421
2150,1422,1421,518
2151,1422,518,1423
2152,519,1423,518
2153,520,1424,519
2154,1423,519,1424
2155,521,1425,520
2156,1424,520,1425
2157,1425,521,1426
2158,522,1426,521
2159,1427,1426,523
2160,522,523,1426
2161,523,524,1427
2162,1428,1427,524
2163,524,525,1428
2164,526,1428,525
2165,527,1429,526
2166,1428,526,1429
2167,1429,527,1430
2168,528,1430,527
2169,529,1431,528
2170,1430,528,1431
2171,1431,529,1432
2172,530,1432,529
2173,1432,530,1433
2174,531,1433,530
2175,1433,531,1434
2176,1434,531,532
2177,1435,1434,533
2178,533,1434,532
2179,1435,533,535
2180,534,535,533
2181,1435,535,1436
2182,536,1436,535
2183,537,1437,536
2184,1436,536,1437
2185,537,538,1437
2186,1438,1437,538
2187,1439,1438,1046
2188,538,1046,1438
2189,1440,1439,1441
2190,1046,1441,1439
2191,1045,1442,1046
2192,1441,1046,1442
2193,1045,540,1442
2194,1443,1442,540
2195,540,539,1443
2196,1444,1443,539
2197,1445,1444,541
2198,539,541,1444
2199,541,542,1445
2200,1446,1445,542
2201,543,1447,542
2202,1447,1446,542
2203,1447,543,1448
2204,544,1448,543
2205,544,545,1448
2206,1449,1448,545
2207,1450,1449,1044
2208,545,1044,1449
2209,1451,1450,1452
2210,1044,1452,1450
2211,1043,1453,1044
2212,1452,1044,1453
2213,1043,547,1453
2214,1454,1453,547
2215,1455,1454,546
2216,547,546,1454
2217,1456,1455,548
2218,546,548,1455
2219,1457,1456,549
2220,548,549,1456
2221,1458,1457,1048
2222,1048,1457,549
2223,1459,1458,1460
2224,1048,1460,1458
2225,1047,1461,1048
2226,1460,1048,1461
2227,551,1462,1047
2228,1461,1047,1462
2229,550,1463,551
2230,1462,551,1463
2231,552,1464,550
2232,1463,550,1464
2233,1042,1465,552
2234,1464,552,1465
2235,1465,1042,1466
2236,1467,1466,1042
2237,1042,1041,1467
2238,1468,1467,1041
2239,1041,553,1468
2240,1469,1468,553
2241,554,1470,553
2242,1469,553,1470
2243,555,1471,554
2244,1471,1470,554
2245,1471,555,1472
2246,556,1472,555
2247,557,1473,556
2248,1472,556,1473
2249,1473,557,1474
2250,558,1474,557
2251,1474,558,1475
2252,559,1475,558
2253,559,560,1475
2254,1476,1475,560
2255,562,1476,561
2256,560,561,1476
2257,1476,562,1477
2258,1477,562,563
2259,1478,1477,564
2260,563,564,1477
2261,1478,564,1479
2262,1479,564,565
2263,1480,1479,566
2264,565,566,1479
2265,566,567,1480
2266,1480,567,1481
2267,567,568,1481
2268,1481,568,1482
2269,1483,1482,569
2270,568,569,1482
2271,1484,1483,570
2272,569,570,1483
2273,1485,1484,571
2274,570,571,1484
2275,1486,1485,572
2276,571,572,1485
2277,1487,1486,573
2278,572,573,1486
2279,1488,1487,574
2280,573,574,1487
2281,575,1489,574
2282,574,1489,1488
2283,576,1490,575
2284,1489,575,1490
2285,1490,576,1491
2286,576,577,1491
2287,1491,577,1492
2288,578,1492,577
2289,579,1493,578
2290,1492,578,1493
2291,1493,579,1494
2292,580,1494,579
2293,1494,580,1495
2294,1495,580,581
2295,1495,581,1496
2296,1496,581,582
2297,1496,582,1497
2298,583,1497,582
2299,583,584,1497
2300,1498,1497,584
2301,1499,1498,585
2302,584,585,1498
2303,585,586,1499
2304,1500,1499,586
2305,1501,1500,587
2306,586,587,1500
2307,1502,1501,588
2308,587,588,1501
2309,1503,1502,589
2310,588,589,1502
2311,1504,1503,590
2312,589,590,1503
2313,1505,1504,591
2314,590,591,1504
2315,1506,1505,592
2316,592,1505,591
2317,1506,592,1507
2318,593,1507,592
2319,1507,593,1508
2320,594,1508,593
2321,1508,594,1509
2322,595,1509,594
2323,596,1510,595
2324,1509,595,1510
2325,596,597,1510
2326,1511,1510,597
2327,597,598,1511
2328,1512,1511,598
2329,1513,1512,599
2330,598,599,1512
2331,1514,1513,600
2332,599,600,1513
2333,1515,1514,601
2334,600,601,1514
2335,1516,1515,602
2336,1515,601,602
2337,1517,1516,603
2338,602,603,1516
2339,603,604,1517
2340,1518,1517,604
2341,1519,1518,605
2342,604,605,1518
2343,1520,1519,606
2344,605,606,1519
2345,606,607,1520
2346,1520,607,1521
2347,607,608,1521
2348,1522,1521,608
2349,608,609,1522
2350,1523,1522,609
2351,609,610,1523
2352,1524,1523,610
2353,1525,1524,611
2354,1524,610,611
2355,1526,1525,612
2356,611,612,1525
2357,612,613,1526
2358,1527,1526,613
2359,1528,1527,614
2360,613,614,1527
2361,1529,1530,616
2362,615,616,1530
2363,1531,1529,617
2364,616,617,1529
2365,617,1532,1531
2366,1533,1531,1532
2367,617,618,1532
2368,1532,618,1198
2369,1359,1334,1336
2370,1335,1336,1334
2371,1360,1534,1359
2372,1334,1359,1534
2373,1361,1535,1360
2374,1534,1360,1535
2375,1535,1361,1536
2376,1362,1536,1361
2377,1363,1537,1362
2378,1536,1362,1537
2379,1364,1538,1363
2380,1363,1538,1537
2381,1538,1364,1539
2382,1365,1539,1364
2383,1366,1540,1365
2384,1539,1365,1540
2385,1367,1541,1366
2386,1540,1366,1541
2387,1368,1542,1367
2388,1367,1542,1541
2389,1368,1369,1542
2390,1543,1542,1369
2391,1369,1370,1543
2392,1544,1543,1370
2393,1545,1544,1371
2394,1370,1371,1544
2395,1371,1372,1545
2396,1546,1545,1372
2397,1547,1546,1373
2398,1372,1373,1546
2399,1547,1373,1548
2400,1374,1548,1373
2401,1548,1374,1549
2402,1375,1549,1374
2403,1549,1375,1550
2404,1376,1550,1375
2405,1550,1376,1551
2406,1551,1376,1377
2407,1551,1377,1552
2408,1378,1552,1377
2409,1552,1378,1553
2410,1379,1553,1378
2411,1380,1554,1379
2412,1553,1379,1554
2413,1554,1380,1555
2414,1555,1380,1381
2415,1381,1382,1555
2416,1556,1555,1382
2417,1557,1556,1383
2418,1382,1383,1556
2419,1558,1557,1384
2420,1557,1383,1384
2421,1559,1558,1385
2422,1384,1385,1558
2423,1560,1559,1386
2424,1385,1386,1559
2425,1560,1386,1561
2426,1387,1561,1386
2427,1561,1387,1562
2428,1388,1562,1387
2429,1562,1388,1563
2430,1388,1389,1563
2431,1390,1564,1389
2432,1563,1389,1564
2433,1564,1390,1565
2434,1391,1565,1390
2435,1565,1391,1566
2436,1392,1566,1391
2437,1566,1392,1567
2438,1393,1567,1392
2439,1567,1393,1568
2440,1394,1568,1393
2441,1395,1569,1394
2442,1568,1394,1569
2443,1569,1395,1570
2444,1395,1396,1570
2445,1570,1396,1398
2446,1397,1398,1396
2447,1570,1398,1571
2448,1399,1571,1398
2449,1401,1572,1400
2450,1400,1572,1573
2451,1401,1402,1572
2452,1574,1572,1402
2453,1403,1575,1402
2454,1574,1402,1575
2455,1403,1404,1575
2456,1576,1575,1404
2457,1404,1406,1576
2458,1577,1576,1406
2459,1406,1578,1577
2460,1579,1577,1578
2461,1578,1406,1580
2462,1406,1405,1580
2463,1580,1405,1581
2464,1407,1581,1405
2465,1407,1408,1581
2466,1582,1581,1408
2467,1409,1583,1408
2468,1582,1408,1583
2469,1410,1584,1409
2470,1583,1409,1584
2471,1584,1410,1585
2472,1411,1585,1410
2473,1412,1586,1411
2474,1585,1411,1586
2475,1587,1586,1413
2476,1412,1413,1586
2477,1588,1414,1416
2478,1415,1416,1414
2479,1589,1588,1417
2480,1416,1417,1588
2481,1418,1590,1417
2482,1589,1417,1590
2483,1419,1591,1418
2484,1590,1418,1591
2485,1419,1420,1591
2486,1592,1591,1420
2487,1420,1421,1592
2488,1592,1421,1593
2489,1593,1421,1594
2490,1594,1421,1422
2491,1423,1595,1422
2492,1594,1422,1595
2493,1424,1596,1423
2494,1595,1423,1596
2495,1596,1424,1597
2496,1425,1597,1424
2497,1426,1598,1425
2498,1597,1425,1598
2499,1598,1426,1599
2500,1427,1599,1426
2501,1428,1600,1427
2502,1599,1427,1600
2503,1600,1428,1601
2504,1429,1601,1428
2505,1601,1429,1602
2506,1430,1602,1429
2507,1431,1603,1430
2508,1602,1430,1603
2509,1603,1431,1604
2510,1432,1604,1431
2511,1604,1432,1605
2512,1433,1605,1432
2513,1605,1433,1606
2514,1434,1606,1433
2515,1435,1607,1434
2516,1606,1434,1607
2517,1436,1608,1435
2518,1435,1608,1607
2519,1437,1609,1436
2520,1608,1436,1609
2521,1437,1438,1609
2522,1609,1438,1610
2523,1611,1610,1439
2524,1438,1439,1610
2525,1612,1611,1440
2526,1439,1440,1611
2527,1613,1612,1614
2528,1614,1612,1440
2529,1614,1440,1615
2530,1440,1441,1615
2531,1442,1616,1441
2532,1615,1441,1616
2533,1442,1443,1616
2534,1617,1616,1443
2535,1443,1444,1617
2536,1618,1617,1444
2537,1444,1445,1618
2538,1619,1618,1445
2539,1620,1619,1446
2540,1445,1446,1619
2541,1620,1446,1621
2542,1447,1621,1446
2543,1621,1447,1622
2544,1448,1622,1447
2545,1448,1449,1622
2546,1623,1622,1449
2547,1449,1450,1623
2548,1450,1624,1623
2549,1625,1624,1451
2550,1450,1451,1624
2551,1626,1625,1627
2552,1451,1627,1625
2553,1452,1628,1451
2554,1628,1627,1451
2555,1453,1629,1452
2556,1628,1452,1629
2557,1630,1629,1454
2558,1453,1454,1629
2559,1454,1455,1630
2560,1631,1630,1455
2561,1632,1631,1456
2562,1456,1631,1455
2563,1633,1632,1457
2564,1456,1457,1632
2565,1634,1633,1458
2566,1457,1458,1633
2567,1635,1634,1459
2568,1458,1459,1634
2569,1636,1635,1637
2570,1459,1637,1635
2571,1637,1459,1638
2572,1460,1638,1459
2573,1638,1460,1639
2574,1461,1639,1460
2575,1639,1461,1640
2576,1462,1640,1461
2577,1640,1462,1641
2578,1463,1641,1462
2579,1464,1642,1463
2580,1641,1463,1642
2581,1465,1643,1464
2582,1642,1464,1643
2583,1643,1465,1644
2584,1465,1466,1644
2585,1644,1466,1645
2586,1646,1645,1466
2587,1466,1467,1646
2588,1647,1646,1467
2589,1467,1468,1647
2590,1648,1647,1468
2591,1468,1469,1648
2592,1470,1648,1469
2593,1648,1470,1649
2594,1471,1649,1470
2595,1472,1650,1471
2596,1649,1471,1650
2597,1650,1472,1651
2598,1473,1651,1472
2599,1474,1652,1473
2600,1473,1652,1651
2601,1475,1653,1474
2602,1653,1652,1474
2603,1477,1653,1476
2604,1653,1475,1476
2605,1647,1648,1654
2606,1654,1648,1649
2607,1650,1655,1649
2608,1654,1649,1655
2609,1651,1656,1650
2610,1655,1650,1656
2611,1532,1198,1657
2612,1657,1198,1199
2613,1657,1199,1658
2614,1200,1658,1199
2615,1201,1659,1200
2616,1658,1200,1659
2617,1659,1201,1660
2618,1201,1202,1660
2619,1660,1202,1661
2620,1662,1661,1202
2621,1202,1203,1662
2622,1663,1662,1203
2623,1203,1204,1663
2624,1664,1663,1204
2625,1204,1205,1664
2626,1665,1664,1205
2627,1205,1206,1665
2628,1206,1666,1665
2629,1206,1207,1666
2630,1667,1666,1207
2631,1667,1207,1668
2632,1208,1668,1207
2633,1669,1668,1209
2634,1210,1209,1668
2635,1669,1209,1670
2636,1670,1209,1211
2637,1670,1211,1671
2638,1212,1671,1211
2639,1185,1672,1212
2640,1671,1212,1672
2641,1673,1672,1186
2642,1672,1185,1186
2643,1674,1673,1187
2644,1186,1187,1673
2645,1187,1188,1674
2646,1675,1674,1188
2647,1676,1675,1189
2648,1188,1189,1675
2649,1677,1676,1190
2650,1189,1190,1676
2651,1678,1677,1191
2652,1190,1191,1677
2653,1679,1678,1192
2654,1191,1192,1678
2655,1679,1192,1194
2656,1193,1194,1192
2657,1680,1679,1196
2658,1194,1196,1679
2659,1196,1681,1680
2660,1682,1680,1681
2661,1195,1683,1196
2662,1196,1683,1681
2663,1683,1195,1347
2664,1197,1347,1195
2665,1684,1358,1214
2666,1213,1214,1358
2667,1215,1685,1214
2668,1684,1214,1685
2669,1216,1686,1215
2670,1685,1215,1686
2671,1217,1687,1216
2672,1687,1686,1216
2673,1218,1688,1217
2674,1687,1217,1688
2675,1219,1689,1218
2676,1688,1218,1689
2677,1220,1690,1219
2678,1689,1219,1690
2679,1221,1691,1220
2680,1690,1220,1691
2681,1222,1692,1221
2682,1691,1221,1692
2683,1692,1222,1693
2684,1223,1693,1222
2685,1224,1694,1223
2686,1693,1223,1694
2687,1224,1225,1694
2688,1695,1694,1225
2689,1696,1695,1226
2690,1225,1226,1695
2691,1697,1696,1227
2692,1226,1227,1696
2693,1697,1227,1698
2694,1698,1227,1228
2695,1229,1699,1228
2696,1698,1228,1699
2697,1699,1229,1700
2698,1700,1229,1230
2699,1231,1701,1230
2700,1701,1700,1230
2701,1701,1231,1702
2702,1232,1702,1231
2703,1702,1232,1703
2704,1233,1703,1232
2705,1703,1233,1704
2706,1234,1704,1233
2707,1704,1234,1705
2708,1235,1705,1234
2709,1705,1235,1237
2710,1236,1237,1235
2711,1705,1237,1706
2712,1238,1706,1237
2713,1706,1238,1707
2714,1707,1238,1239
2715,1240,1708,1239
2716,1707,1239,1708
2717,1241,1709,1240
2718,1708,1240,1709
2719,1242,1710,1241
2720,1241,1710,1709
2721,1243,1711,1242
2722,1710,1242,1711
2723,1244,1712,1243
2724,1711,1243,1712
2725,1245,1713,1244
2726,1712,1244,1713
2727,1246,1714,1245
2728,1713,1245,1714
2729,1247,1715,1246
2730,1714,1246,1715
2731,1248,1716,1247
2732,1715,1247,1716
2733,1249,1717,1248
2734,1716,1248,1717
2735,1250,1718,1249
2736,1717,1249,1718
2737,1251,1719,1250
2738,1718,1250,1719
2739,1252,1720,1251
2740,1719,1251,1720
2741,1253,1721,1252
2742,1720,1252,1721
2743,1254,1722,1253
2744,1721,1253,1722
2745,1255,1723,1254
2746,1254,1723,1722
2747,1256,1724,1255
2748,1723,1255,1724
2749,1257,1725,1256
2750,1724,1256,1725
2751,1258,1726,1257
2752,1725,1257,1726
2753,1259,1727,1258
2754,1726,1258,1727
2755,1260,1728,1259
2756,1259,1728,1727
2757,1261,1729,1260
2758,1728,1260,1729
2759,1262,1730,1261
2760,1729,1261,1730
2761,1263,1731,1262
2762,1730,1262,1731
2763,1264,1732,1263
2764,1731,1263,1732
2765,1265,1733,1264
2766,1732,1264,1733
2767,1266,1734,1265
2768,1733,1265,1734
2769,1267,1735,1266
2770,1734,1266,1735
2771,1268,1736,1267
2772,1736,1735,1267
2773,1269,1737,1268
2774,1736,1268,1737
2775,1270,1738,1269
2776,1737,1269,1738
2777,1271,1739,1270
2778,1270,1739,1738
2779,1272,1740,1271
2780,1739,1271,1740
2781,1273,1741,1272
2782,1741,1740,1272
2783,1274,1742,1273
2784,1741,1273,1742
2785,1275,1743,1274
2786,1742,1274,1743
2787,1276,1744,1275
2788,1743,1275,1744
2789,1277,1745,1276
2790,1744,1276,1745
2791,1278,1746,1277
2792,1745,1277,1746
2793,1279,1747,1278
2794,1747,1746,1278
2795,1280,1748,1279
2796,1747,1279,1748
2797,1748,1280,1749
2798,1281,1749,1280
2799,1282,1750,1281
2800,1749,1281,1750
2801,1283,1751,1282
2802,1750,1282,1751
2803,1752,1751,1284
2804,1283,1284,1751
2805,1284,1285,1752
2806,1753,1752,1285
2807,1285,1286,1753
2808,1753,1286,1754
2809,1286,1287,1754
2810,1755,1754,1287
2811,1287,1288,1755
2812,1756,1755,1288
2813,1288,1289,1756
2814,1289,1757,1756
2815,1289,1290,1757
2816,1758,1757,1290
2817,1290,1291,1758
2818,1759,1758,1291
2819,1760,1759,1292
2820,1291,1292,1759
2821,1761,1760,1293
2822,1760,1292,1293
2823,1293,1294,1761
2824,1762,1761,1294
2825,1294,1295,1762
2826,1763,1762,1295
2827,1295,1296,1763
2828,1764,1763,1296
2829,1296,1297,1764
2830,1765,1764,1297
2831,1297,1298,1765
2832,1766,1765,1298
2833,1298,1299,1766
2834,1766,1299,1767
2835,1299,1300,1767
2836,1768,1767,1300
2837,1300,1301,1768
2838,1768,1301,1769
2839,1301,1302,1769
2840,1769,1302,1770
2841,1302,1303,1770
2842,1771,1770,1303
2843,1303,1304,1771
2844,1771,1304,1772
2845,1304,1305,1772
2846,1772,1305,1773
2847,1305,1306,1773
2848,1774,1773,1306
2849,1306,1307,1774
2850,1775,1774,1307
2851,1307,1308,1775
2852,1776,1775,1308
2853,1777,1776,1309
2854,1308,1309,1776
2855,1309,1310,1777
2856,1778,1777,1310
2857,1310,1311,1778
2858,1779,1778,1311
2859,1780,1779,1312
2860,1311,1312,1779
2861,1312,1313,1780
2862,1781,1780,1313
2863,1782,1781,1314
2864,1313,1314,1781
2865,1314,1315,1782
2866,1783,1782,1315
2867,1784,1783,1316
2868,1783,1315,1316
2869,1785,1784,1317
2870,1316,1317,1784
2871,1786,1785,1318
2872,1317,1318,1785
2873,1787,1786,1319
2874,1318,1319,1786
2875,1788,1787,1320
2876,1319,1320,1787
2877,1789,1788,1321
2878,1320,1321,1788
2879,1790,1789,1322
2880,1321,1322,1789
2881,1322,1323,1790
2882,1791,1790,1323
2883,1792,1791,1324
2884,1323,1324,1791
2885,1793,1792,1325
2886,1324,1325,1792
2887,1794,1793,1326
2888,1326,1793,1325
2889,1795,1794,1327
2890,1326,1327,1794
2891,1327,1328,1795
2892,1796,1795,1328
2893,1328,1329,1796
2894,1797,1796,1329
2895,1329,1330,1797
2896,1797,1330,1798
2897,1799,1798,1331
2898,1330,1331,1798
2899,1800,1799,1332
2900,1331,1332,1799
2901,1332,1333,1800
2902,1801,1800,1333
2903,1534,1801,1334
2904,1334,1801,1333
2905,1347,1348,1683
2906,1683,1348,1802
2907,1348,1349,1802
2908,1803,1802,1349
2909,1804,1803,1350
2910,1349,1350,1803
2911,1805,1804,1351
2912,1350,1351,1804
2913,1806,1805,1352
2914,1351,1352,1805
2915,1353,1807,1352
2916,1807,1806,1352
2917,1354,1808,1353
2918,1807,1353,1808
2919,1355,1809,1354
2920,1808,1354,1809
2921,1356,1810,1355
2922,1809,1355,1810
2923,1357,1811,1356
2924,1810,1356,1811
2925,1684,1811,1358
2926,1357,1358,1811
2927,1656,1653,1478
2928,1478,1653,1477
2929,1812,1656,1479
2930,1478,1479,1656
2931,1479,1480,1812
2932,1813,1812,1480
2933,1480,1481,1813
2934,1814,1813,1481
2935,1815,1814,1482
2936,1481,1482,1814
2937,1816,1815,1483
2938,1482,1483,1815
2939,1817,1816,1484
2940,1484,1816,1483
2941,1818,1817,1485
2942,1484,1485,1817
2943,1819,1818,1486
2944,1485,1486,1818
2945,1820,1819,1487
2946,1486,1487,1819
2947,1821,1820,1488
2948,1487,1488,1820
2949,1489,1822,1488
2950,1821,1488,1822
2951,1490,1823,1489
2952,1822,1489,1823
2953,1823,1490,1824
2954,1491,1824,1490
2955,1824,1491,1493
2956,1492,1493,1491
2957,1824,1493,1825
2958,1825,1493,1494
2959,1825,1494,1826
2960,1495,1826,1494
2961,1826,1495,1827
2962,1496,1827,1495
2963,1827,1496,1828
2964,1497,1828,1496
2965,1828,1497,1829
2966,1498,1829,1497
2967,1498,1499,1829
2968,1830,1829,1499
2969,1831,1832,1502
2970,1501,1502,1832
2971,1833,1831,1503
2972,1502,1503,1831
2973,1834,1833,1504
2974,1503,1504,1833
2975,1835,1834,1505
2976,1504,1505,1834
2977,1836,1835,1506
2978,1505,1506,1835
2979,1837,1836,1507
2980,1506,1507,1836
2981,1837,1507,1838
2982,1508,1838,1507
2983,1838,1508,1839
2984,1509,1839,1508
2985,1839,1509,1840
2986,1510,1840,1509
2987,1511,1841,1510
2988,1840,1510,1841
2989,1511,1512,1841
2990,1842,1841,1512
2991,1512,1513,1842
2992,1843,1842,1513
2993,1844,1843,1514
2994,1513,1514,1843
2995,1845,1844,1515
2996,1514,1515,1844
2997,1846,1845,1516
2998,1845,1515,1516
2999,1847,1846,1517
3000,1516,1517,1846
3001,1848,1847,1518
3002,1517,1518,1847
3003,1848,1518,1849
3004,1849,1518,1519
3005,1850,1849,1520
3006,1519,1520,1849
3007,1850,1520,1851
3008,1521,1851,1520
3009,1657,1852,1532
3010,1532,1852,1533
3011,1659,1853,1658
3012,1854,1658,1853
3013,1661,1855,1660
3014,1856,1660,1855
3015,1857,1858,1661
3016,1855,1661,1858
3017,1859,1857,1662
3018,1661,1662,1857
3019,1662,1663,1859
3020,1860,1859,1663
3021,1663,1664,1860
3022,1861,1860,1664
3023,1664,1665,1861
3024,1665,1862,1861
3025,1665,1666,1862
3026,1863,1862,1666
3027,1864,1863,1667
3028,1666,1667,1863
3029,1864,1667,1669
3030,1668,1669,1667
3031,1864,1669,1865
3032,1670,1865,1669
3033,1671,1866,1670
3034,1865,1670,1866
3035,1671,1672,1866
3036,1672,1867,1866
3037,1672,1673,1867
3038,1868,1867,1673
3039,1869,1868,1674
3040,1673,1674,1868
3041,1870,1869,1675
3042,1674,1675,1869
3043,1675,1676,1870
3044,1871,1870,1676
3045,1872,1871,1677
3046,1676,1677,1871
3047,1873,1872,1678
3048,1677,1678,1872
3049,1874,1873,1679
3050,1678,1679,1873
3051,1679,1680,1874
3052,1875,1874,1680
3053,1680,1682,1875
3054,1876,1875,1682
3055,1682,1877,1876
3056,1878,1876,1877
3057,1681,1879,1682
3058,1877,1682,1879
3059,1683,1802,1681
3060,1879,1681,1802
3061,1659,1660,1880
3062,1880,1660,1856
3063,1659,1880,1853
3064,1881,1853,1880
3065,1656,1651,1653
3066,1652,1653,1651
3067,614,615,1882
3068,1530,1882,615
3069,1883,1528,1882
3070,614,1882,1528
3071,1658,1854,1657
3072,1657,1854,1884
3073,1885,1852,1884
3074,1657,1884,1852
3075,1886,1655,1812
3076,1812,1655,1656
3077,1812,1813,1886
3078,1887,1886,1813
3079,1888,1887,1814
3080,1813,1814,1887
3081,1889,1888,1815
3082,1814,1815,1888
3083,1890,1889,1816
3084,1815,1816,1889
3085,1891,1890,1817
3086,1816,1817,1890
3087,1892,1891,1818
3088,1817,1818,1891
3089,1893,1892,1819
3090,1818,1819,1892
3091,1894,1893,1820
3092,1820,1893,1819
3093,1821,1895,1820
3094,1895,1894,1820
3095,1822,1896,1821
3096,1895,1821,1896
3097,1823,1897,1822
3098,1896,1822,1897
3099,1897,1823,1898
3100,1824,1898,1823
3101,1825,1899,1824
3102,1898,1824,1899
3103,1899,1825,1900
3104,1826,1900,1825
3105,1900,1826,1901
3106,1827,1901,1826
3107,1901,1827,1902
3108,1828,1902,1827
3109,1902,1828,1903
3110,1829,1903,1828
3111,1903,1829,1904
3112,1830,1904,1829
3113,1905,1904,1831
3114,1832,1831,1904
3115,1906,1905,1833
3116,1831,1833,1905
3117,1907,1906,1834
3118,1833,1834,1906
3119,1908,1907,1835
3120,1834,1835,1907
3121,1909,1908,1836
3122,1836,1908,1835
3123,1837,1910,1836
3124,1909,1836,1910
3125,1839,1911,1838
3126,1912,1838,1911
3127,1840,1913,1839
3128,1911,1839,1913
3129,1841,1914,1840
3130,1913,1840,1914
3131,1841,1842,1914
3132,1915,1914,1842
3133,1842,1843,1915
3134,1916,1915,1843
3135,1917,1916,1844
3136,1843,1844,1916
3137,1844,1845,1917
3138,1918,1917,1845
3139,1919,1918,1846
3140,1845,1846,1918
3141,1920,1919,1847
3142,1919,1846,1847
3143,1847,1848,1920
3144,1921,1920,1848
3145,1922,1923,1850
3146,1849,1850,1923
3147,1922,1850,1924
3148,1851,1924,1850
3149,1924,1851,1524
3150,1523,1524,1851
3151,1838,1912,1837
3152,1925,1837,1912
3153,1837,1925,1910
3154,1926,1910,1925
3155,1849,1923,1848
3156,1927,1848,1923
3157,1928,1921,1927
3158,1921,1848,1927
3159,1929,1924,1525
3160,1524,1525,1924
3161,1525,1526,1929
3162,1930,1929,1526
3163,1526,1527,1930
3164,1931,1930,1527
3165,1932,1931,1528
3166,1527,1528,1931
3167,1933,1932,1883
3168,1528,1883,1932
3169,1934,1933,1935
3170,1883,1935,1933
3171,1882,1936,1883
3172,1935,1883,1936
3173,1882,1530,1936
3174,1936,1530,1937
3175,1938,1937,1529
3176,1530,1529,1937
3177,1529,1531,1938
3178,1939,1938,1531
3179,1531,1533,1939
3180,1940,1939,1533
3181,1533,1852,1940
3182,1940,1852,1941
3183,1852,1885,1941
3184,1942,1941,1885
3185,1885,1943,1942
3186,1944,1942,1943
3187,1943,1885,1945
3188,1884,1945,1885
3189,1854,1946,1884
3190,1945,1884,1946
3191,1946,1854,1881
3192,1853,1881,1854
3193,1802,1803,1879
3194,1947,1879,1803
3195,1948,1947,1804
3196,1803,1804,1947
3197,1949,1948,1805
3198,1804,1805,1948
3199,1950,1949,1806
3200,1805,1806,1949
3201,1951,1950,1807
3202,1806,1807,1950
3203,1951,1807,1952
3204,1808,1952,1807
3205,1952,1808,1953
3206,1809,1953,1808
3207,1953,1809,1954
3208,1810,1954,1809
3209,1811,1955,1810
3210,1954,1810,1955
3211,1955,1811,1956
3212,1684,1956,1811
3213,1685,1957,1684
3214,1956,1684,1957
3215,1686,1958,1685
3216,1958,1957,1685
3217,1687,1959,1686
3218,1958,1686,1959
3219,1688,1960,1687
3220,1687,1960,1959
3221,1689,1961,1688
3222,1960,1688,1961
3223,1690,1962,1689
3224,1961,1689,1962
3225,1690,1691,1962
3226,1691,1963,1962
3227,1963,1691,1964
3228,1692,1964,1691
3229,1964,1692,1965
3230,1693,1965,1692
3231,1965,1693,1695
3232,1694,1695,1693
3233,1966,1965,1696
3234,1695,1696,1965
3235,1967,1966,1697
3236,1696,1697,1966
3237,1967,1697,1968
3238,1698,1968,1697
3239,1968,1698,1969
3240,1699,1969,1698
3241,1969,1699,1970
3242,1700,1970,1699
3243,1970,1700,1971
3244,1971,1700,1701
3245,1702,1972,1701
3246,1701,1972,1971
3247,1972,1702,1973
3248,1973,1702,1703
3249,1704,1974,1703
3250,1973,1703,1974
3251,1705,1975,1704
3252,1974,1704,1975
3253,1706,1976,1705
3254,1975,1705,1976
3255,1707,1977,1706
3256,1976,1706,1977
3257,1708,1978,1707
3258,1707,1978,1977
3259,1709,1979,1708
3260,1708,1979,1978
3261,1710,1980,1709
3262,1979,1709,1980
3263,1711,1981,1710
3264,1980,1710,1981
3265,1712,1982,1711
3266,1981,1711,1982
3267,1713,1983,1712
3268,1712,1983,1982
3269,1714,1984,1713
3270,1983,1713,1984
3271,1715,1985,1714
3272,1984,1714,1985
3273,1716,1986,1715
3274,1985,1715,1986
3275,1717,1987,1716
3276,1986,1716,1987
3277,1718,1988,1717
3278,1987,1717,1988
3279,1719,1989,1718
3280,1988,1718,1989
3281,1720,1990,1719
3282,1719,1990,1989
3283,1721,1991,1720
3284,1720,1991,1990
3285,1722,1992,1721
3286,1721,1992,1991
3287,1723,1993,1722
3288,1992,1722,1993
3289,1724,1994,1723
3290,1993,1723,1994
3291,1725,1995,1724
3292,1994,1724,1995
3293,1726,1996,1725
3294,1995,1725,1996
3295,1727,1997,1726
3296,1996,1726,1997
3297,1728,1998,1727
3298,1997,1727,1998
3299,1729,1999,1728
3300,1998,1728,1999
3301,1730,2000,1729
3302,1999,1729,2000
3303,1731,2001,1730
3304,2001,2000,1730
3305,1732,2002,1731
3306,2001,1731,2002
3307,1733,2003,1732
3308,2002,1732,2003
3309,1734,2004,1733
3310,2003,1733,2004
3311,1735,2005,1734
3312,2004,1734,2005
3313,1736,2006,1735
3314,2005,1735,2006
3315,1737,2007,1736
3316,2006,1736,2007
3317,1738,2008,1737
3318,1737,2008,2007
3319,1739,2009,1738
3320,2009,2008,1738
3321,1740,2010,1739
3322,2009,1739,2010
3323,1741,2011,1740
3324,2010,1740,2011
3325,1742,2012,1741
3326,2011,1741,2012
3327,1743,2013,1742
3328,2012,1742,2013
3329,1744,2014,1743
3330,2013,1743,2014
3331,1745,2015,1744
3332,1744,2015,2014
3333,1746,2016,1745
3334,2015,1745,2016
3335,1747,2017,1746
3336,2016,1746,2017
3337,1748,2018,1747
3338,2017,1747,2018
3339,1749,2019,1748
3340,2018,1748,2019
3341,1750,2020,1749
3342,2020,2019,1749
3343,1751,2021,1750
3344,2020,1750,2021
3345,1751,1752,2021
3346,2022,2021,1752
3347,1752,1753,2022
3348,1753,2023,2022
3349,1753,1754,2023
3350,1754,2024,2023
3351,1754,1755,2024
3352,1755,2025,2024
3353,1755,1756,2025
3354,2026,2025,1756
3355,1756,1757,2026
3356,2027,2026,1757
3357,1757,1758,2027
3358,2028,2027,1758
3359,1758,1759,2028
3360,2029,2028,1759
3361,2030,2029,1760
3362,1759,1760,2029
3363,2030,1760,2031
3364,1761,2031,1760
3365,1761,1762,2031
3366,1762,2032,2031
3367,1762,1763,2032
3368,1763,2033,2032
3369,1763,1764,2033
3370,1764,2034,2033
3371,1764,1765,2034
3372,2035,2034,1765
3373,1765,1766,2035
3374,2036,2035,1766
3375,1766,1767,2036
3376,2037,2036,1767
3377,1767,1768,2037
3378,2038,2037,1768
3379,1768,1769,2038
3380,2039,2038,1769
3381,1769,1770,2039
3382,2040,2039,1770
3383,1770,1771,2040
3384,2040,1771,2041
3385,1771,1772,2041
3386,2042,2041,1772
3387,1772,1773,2042
3388,2043,2042,1773
3389,1773,1774,2043
3390,2044,2043,1774
3391,1774,1775,2044
3392,2045,2044,1775
3393,1775,1776,2045
3394,2045,1776,2046
3395,1776,1777,2046
3396,2047,2046,1777
3397,1777,1778,2047
3398,2048,2047,1778
3399,2049,2048,1779
3400,1778,1779,2048
3401,1779,1780,2049
3402,2050,2049,1780
3403,2051,2050,1781
3404,1780,1781,2050
3405,1781,1782,2051
3406,2052,2051,1782
3407,2053,2052,1783
3408,1782,1783,2052
3409,1783,1784,2053
3410,2054,2053,1784
3411,2055,2054,1785
3412,1784,1785,2054
3413,2056,2055,1786
3414,1785,1786,2055
3415,2057,2056,1787
3416,2056,1786,1787
3417,2058,2057,1788
3418,1787,1788,2057
3419,2059,2058,1789
3420,1788,1789,2058
3421,2060,2059,1790
3422,1789,1790,2059
3423,2061,2060,1791
3424,1790,1791,2060
3425,1791,1792,2061
3426,2062,2061,1792
3427,2063,2062,1793
3428,1792,1793,2062
3429,2064,2063,1794
3430,1794,2063,1793
3431,2065,2064,1795
3432,1794,1795,2064
3433,2066,2065,1796
3434,1795,1796,2065
3435,1796,1797,2066
3436,1797,2067,2066
3437,1797,1798,2067
3438,2068,2067,1798
3439,1798,1799,2068
3440,2069,2068,1799
3441,2070,2069,1800
3442,1799,1800,2069
3443,2070,1800,2071
3444,1801,2071,1800
3445,1801,1534,2071
3446,1535,2071,1534
3447,1851,1521,1523
3448,1522,1523,1521
3449,2072,1569,1571
3450,1570,1571,1569
3451,2073,2072,2074
3452,1571,2074,2072
3453,2074,2075,2073
3454,2076,2073,2075
3455,1572,2077,1573
3456,2078,1573,2077
3457,1574,2079,1572
3458,1572,2079,2077
3459,1575,2080,1574
3460,2079,1574,2080
3461,1576,2081,1575
3462,2080,1575,2081
3463,1576,1577,2081
3464,2082,2081,1577
3465,1577,1579,2082
3466,2083,2082,1579
3467,1579,2084,2083
3468,2085,2083,2084
3469,1578,2086,1579
3470,2084,1579,2086
3471,2086,1578,2087
3472,1578,1580,2087
3473,1581,2088,1580
3474,2087,1580,2088
3475,1582,2089,1581
3476,2088,1581,2089
3477,1583,2090,1582
3478,1582,2090,2089
3479,1584,2091,1583
3480,2090,1583,2091
3481,1585,2092,1584
3482,2091,1584,2092
3483,1586,2093,1585
3484,2092,1585,2093
3485,1586,1587,2093
3486,2094,2093,1587
3487,2095,2094,2096
3488,1587,2096,2094
3489,1590,1591,2097
3490,2098,2097,1591
3491,2099,2098,1592
3492,1591,1592,2098
3493,1593,2100,1592
3494,2099,1592,2100
3495,1594,2101,1593
3496,2101,2100,1593
3497,1595,2102,1594
3498,2101,1594,2102
3499,2102,1595,2103
3500,1596,2103,1595
3501,1597,2104,1596
3502,2104,2103,1596
3503,2104,1597,2105
3504,1598,2105,1597
3505,2105,1598,2106
3506,1599,2106,1598
3507,2106,1599,2107
3508,1600,2107,1599
3509,1601,2108,1600
3510,2107,1600,2108
3511,2108,1601,1603
3512,1602,1603,1601
3513,2108,1603,2109
3514,1604,2109,1603
3515,2109,1604,2110
3516,1605,2110,1604
3517,2110,1605,2111
3518,1606,2111,1605
3519,1607,2112,1606
3520,2112,2111,1606
3521,1608,2113,1607
3522,2112,1607,2113
3523,2113,1608,2114
3524,1609,2114,1608
3525,2099,2115,2098
3526,2097,2098,2115
3527,2100,2116,2099
3528,2115,2099,2116
3529,2101,2117,2100
3530,2116,2100,2117
3531,2102,2118,2101
3532,2101,2118,2117
3533,2103,2104,2119
3534,2120,2119,2104
3535,2120,2104,2121
3536,2105,2121,2104
3537,2121,2105,2122
3538,2106,2122,2105
3539,2122,2106,2123
3540,2107,2123,2106
3541,2108,2124,2107
3542,2124,2123,2107
3543,2109,2125,2108
3544,2124,2108,2125
3545,2125,2109,2126
3546,2110,2126,2109
3547,2126,2110,2127
3548,2111,2127,2110
3549,2128,2113,2129
3550,2114,2129,2113
3551,2129,2114,1612
3552,1611,1612,2114
3553,2130,2129,1613
3554,1613,2129,1612
3555,2131,2130,2132
3556,1613,2132,2130
3557,2132,1613,2133
3558,1614,2133,1613
3559,2133,1614,2134
3560,1615,2134,1614
3561,1616,2135,1615
3562,1615,2135,2134
3563,1617,2136,1616
3564,2135,1616,2136
3565,1617,1618,2136
3566,2137,2136,1618
3567,1618,1619,2137
3568,2138,2137,1619
3569,2139,2138,1620
3570,1619,1620,2138
3571,2139,1620,2140
3572,1621,2140,1620
3573,2140,1621,2141
3574,1622,2141,1621
3575,1622,1623,2141
3576,2142,2141,1623
3577,1623,1624,2142
3578,2143,2142,1624
3579,1624,1625,2143
3580,2144,2143,1625
3581,2145,2144,1626
3582,1625,1626,2144
3583,2146,2145,2147
3584,1626,2147,2145
3585,2147,1626,2148
3586,2148,1626,1627
3587,1628,2149,1627
3588,2148,1627,2149
3589,1629,2150,1628
3590,2149,1628,2150
3591,2151,2150,1630
3592,1629,1630,2150
3593,1630,1631,2151
3594,2152,2151,1631
3595,2153,2152,1632
3596,1631,1632,2152
3597,2154,2153,1633
3598,1632,1633,2153
3599,2155,2154,1634
3600,1633,1634,2154
3601,2156,2155,1635
3602,1634,1635,2155
3603,2157,2156,1636
3604,1635,1636,2156
3605,2158,2157,2159
3606,2159,2157,1636
3607,2159,1636,2160
3608,1637,2160,1636
3609,2160,1637,2161
3610,1638,2161,1637
3611,2161,1638,2162
3612,1639,2162,1638
3613,2162,1639,2163
3614,1640,2163,1639
3615,2163,1640,1642
3616,1641,1642,1640
3617,2164,2163,1643
3618,1642,1643,2163
3619,2164,1643,2165
3620,1644,2165,1643
3621,2165,1644,2166
3622,1645,2166,1644
3623,2167,2168,1645
3624,1645,2168,2166
3625,2169,2167,1646
3626,1645,1646,2167
3627,1646,1647,2169
3628,1654,2169,1647
3629,2170,1860,1862
3630,1861,1862,1860
3631,2171,2170,1863
3632,1863,2170,1862
3633,1864,2172,1863
3634,2171,1863,2172
3635,1865,2173,1864
3636,2173,2172,1864
3637,1866,2174,1865
3638,2173,1865,2174
3639,1867,2175,1866
3640,2174,1866,2175
3641,1867,1868,2175
3642,2175,1868,2176
3643,1868,1869,2176
3644,2177,2176,1869
3645,2178,2177,1870
3646,1869,1870,2177
3647,2114,1609,1611
3648,1611,1609,1610
3649,2179,1903,1905
3650,1904,1905,1903
3651,2180,2179,1906
3652,1905,1906,2179
3653,2181,2180,1907
3654,1906,1907,2180
3655,2182,2181,1908
3656,1907,1908,2181
3657,2183,2182,1909
3658,1909,2182,1908
3659,2184,2183,1910
3660,1909,1910,2183
3661,1910,1926,2184
3662,2184,1926,2185
3663,1926,2186,2185
3664,2187,2185,2186
3665,1925,2188,1926
3666,2186,1926,2188
3667,1912,2189,1925
3668,2189,2188,1925
3669,1911,2190,1912
3670,2189,1912,2190
3671,1913,2191,1911
3672,2190,1911,2191
3673,1914,2192,1913
3674,2191,1913,2192
3675,1914,1915,2192
3676,2193,2192,1915
3677,1915,1916,2193
3678,2194,2193,1916
3679,2195,2194,1917
3680,1916,1917,2194
3681,1917,1918,2195
3682,2196,2195,1918
3683,1918,1919,2196
3684,2197,2196,1919
3685,2198,2197,1920
3686,1919,1920,2197
3687,1920,1921,2198
3688,2199,2198,1921
3689,2200,2199,1928
3690,1921,1928,2199
3691,2201,2200,2202
3692,2200,1928,2202
3693,1927,2203,1928
3694,1928,2203,2202
3695,1923,2204,1927
3696,2203,1927,2204
3697,1923,1922,2204
3698,2205,2204,1922
3699,1924,2206,1922
3700,1922,2206,2205
3701,1924,1929,2206
3702,2207,2206,1929
3703,1929,1930,2207
3704,2208,2207,1930
3705,1930,1931,2208
3706,2209,2208,1931
3707,2210,2209,1932
3708,1931,1932,2209
3709,2211,2210,1933
3710,1932,1933,2210
3711,2212,2211,1934
3712,1933,1934,2211
3713,2213,2212,2214
3714,1934,2214,2212
3715,1935,2215,1934
3716,1934,2215,2214
3717,1936,2216,1935
3718,2215,1935,2216
3719,1936,1937,2216
3720,2217,2216,1937
3721,1937,1938,2217
3722,2218,2217,1938
3723,1939,2219,1938
3724,2218,1938,2219
3725,2219,1939,2220
3726,1940,2220,1939
3727,1940,1941,2220
3728,2221,2220,1941
3729,1941,1942,2221
3730,2222,2221,1942
3731,1942,1944,2222
3732,2223,2222,1944
3733,1944,2224,2223
3734,2225,2223,2224
3735,1943,2226,1944
3736,2224,1944,2226
3737,2226,1943,2227
3738,1945,2227,1943
3739,1946,2228,1945
3740,2227,1945,2228
3741,2228,1946,2229
3742,1881,2229,1946
3743,2229,1881,2230
3744,1880,2230,1881
3745,1856,2231,1880
3746,2230,1880,2231
3747,1855,2232,1856
3748,2231,1856,2232
3749,2233,2232,1858
3750,1855,1858,2232
3751,1858,2234,2233
3752,2235,2233,2234
3753,2234,1858,2236
3754,1857,2236,1858
3755,2236,1857,2237
3756,1859,2237,1857
3757,2237,1859,2170
3758,2170,1859,1860
3759,1536,2238,1535
3760,2071,1535,2238
3761,1537,2239,1536
3762,2238,1536,2239
3763,2239,1537,2240
3764,1538,2240,1537
3765,1539,2241,1538
3766,2240,1538,2241
3767,1540,2242,1539
3768,1539,2242,2241
3769,1541,2243,1540
3770,2242,1540,2243
3771,1541,1542,2243
3772,2244,2243,1542
3773,1542,1543,2244
3774,2244,1543,2245
3775,1543,1544,2245
3776,2246,2245,1544
3777,1544,1545,2246
3778,1545,2247,2246
3779,2247,1545,2248
3780,1546,2248,1545
3781,2249,2248,1547
3782,1546,1547,2248
3783,1549,2250,1548
3784,1548,2250,2251
3785,2250,1549,2252
3786,2252,1549,1550
3787,2252,1550,2253
3788,1551,2253,1550
3789,2253,1551,2254
3790,2254,1551,1552
3791,2254,1552,2255
3792,1553,2255,1552
3793,2255,1553,2256
3794,2256,1553,1554
3795,2256,1554,2257
3796,1555,2257,1554
3797,2257,1555,2258
3798,1556,2258,1555
3799,2259,2258,1557
3800,1556,1557,2258
3801,2260,2259,1558
3802,2259,1557,1558
3803,2261,2260,1559
3804,1558,1559,2260
3805,2262,2261,1560
3806,1559,1560,2261
3807,2262,1560,2263
3808,1561,2263,1560
3809,2263,1561,2264
3810,1562,2264,1561
3811,2264,1562,2265
3812,1563,2265,1562
3813,2265,1563,2266
3814,1564,2266,1563
3815,2266,1564,2267
3816,2267,1564,1565
3817,2267,1565,2268
3818,1566,2268,1565
3819,2268,1566,2269
3820,1567,2269,1566
3821,2269,1567,2270
3822,1567,1568,2270
3823,1569,2072,1568
3824,2270,1568,2072
3825,2271,2272,1873
3826,1872,1873,2272
3827,2273,2271,1874
3828,1873,1874,2271
3829,1874,1875,2273
3830,2273,1875,2274
3831,1875,1876,2274
3832,2275,2274,1876
3833,1876,1878,2275
3834,2276,2275,1878
3835,1878,2277,2276
3836,2278,2276,2277
3837,1877,2279,1878
3838,2277,1878,2279
3839,1879,1947,1877
3840,2279,1877,1947
3841,1947,1948,2279
3842,2280,2279,1948
3843,2281,2280,1949
3844,1948,1949,2280
3845,2282,2281,1950
3846,1949,1950,2281
3847,2283,2282,1951
3848,1950,1951,2282
3849,1951,1952,2283
3850,2284,2283,1952
3851,2284,1952,2285
3852,1953,2285,1952
3853,2285,1953,2286
3854,1953,1954,2286
3855,1955,2287,1954
3856,2286,1954,2287
3857,2287,1955,2288
3858,2288,1955,1956
3859,1957,2289,1956
3860,2288,1956,2289
3861,1958,2290,1957
3862,2289,1957,2290
3863,1959,2291,1958
3864,2291,2290,1958
3865,1960,2292,1959
3866,2291,1959,2292
3867,1961,2293,1960
3868,2292,1960,2293
3869,1961,1962,2293
3870,2294,2293,1962
3871,2295,2294,1963
3872,2294,1962,1963
3873,2296,2295,1964
3874,1964,2295,1963
3875,1965,2297,1964
3876,2296,1964,2297
3877,1965,1966,2297
3878,2297,1966,2298
3879,1966,1967,2298
3880,2299,2298,1967
3881,2299,1967,2300
3882,1968,2300,1967
3883,2300,1968,2301
3884,1969,2301,1968
3885,2301,1969,2302
3886,1970,2302,1969
3887,1971,2303,1970
3888,2302,1970,2303
3889,1972,2304,1971
3890,2303,1971,2304
3891,1973,2305,1972
3892,2304,1972,2305
3893,1974,2306,1973
3894,2306,2305,1973
3895,1975,2307,1974
3896,2306,1974,2307
3897,1976,2308,1975
3898,2307,1975,2308
3899,1977,2309,1976
3900,1976,2309,2308
3901,1978,2310,1977
3902,2309,1977,2310
3903,1979,2311,1978
3904,2310,1978,2311
3905,1980,2312,1979
3906,1979,2312,2311
3907,1981,2313,1980
3908,2312,1980,2313
3909,1982,2314,1981
3910,2313,1981,2314
3911,1983,2315,1982
3912,2314,1982,2315
3913,1984,2316,1983
3914,2315,1983,2316
3915,1985,2317,1984
3916,2316,1984,2317
3917,1986,2318,1985
3918,2317,1985,2318
3919,1987,2319,1986
3920,2318,1986,2319
3921,1988,2320,1987
3922,2319,1987,2320
3923,1989,2321,1988
3924,2320,1988,2321
3925,1990,2322,1989
3926,2321,1989,2322
3927,1991,2323,1990
3928,2322,1990,2323
3929,1992,2324,1991
3930,2323,1991,2324
3931,1993,2325,1992
3932,1992,2325,2324
3933,1994,2326,1993
3934,1993,2326,2325
3935,1995,2327,1994
3936,2326,1994,2327
3937,1996,2328,1995
3938,2327,1995,2328
3939,1997,2329,1996
3940,2328,1996,2329
3941,1998,2330,1997
3942,1997,2330,2329
3943,1999,2331,1998
3944,2330,1998,2331
3945,2000,2332,1999
3946,1999,2332,2331
3947,2001,2333,2000
3948,2332,2000,2333
3949,2002,2334,2001
3950,2333,2001,2334
3951,2003,2335,2002
3952,2334,2002,2335
3953,2004,2336,2003
3954,2335,2003,2336
3955,2005,2337,2004
3956,2337,2336,2004
3957,2006,2338,2005
3958,2338,2337,2005
3959,2007,2339,2006
3960,2338,2006,2339
3961,2008,2340,2007
3962,2339,2007,2340
3963,2009,2341,2008
3964,2340,2008,2341
3965,2010,2342,2009
3966,2009,2342,2341
3967,2342,2010,2343
3968,2011,2343,2010
3969,2343,2011,2344
3970,2012,2344,2011
3971,2013,2345,2012
3972,2344,2012,2345
3973,2014,2346,2013
3974,2345,2013,2346
3975,2015,2347,2014
3976,2347,2346,2014
3977,2016,2348,2015
3978,2347,2015,2348
3979,2017,2349,2016
3980,2348,2016,2349
3981,2018,2350,2017
3982,2349,2017,2350
3983,2019,2351,2018
3984,2350,2018,2351
3985,2020,2352,2019
3986,2351,2019,2352
3987,2021,2353,2020
3988,2352,2020,2353
3989,2021,2022,2353
3990,2354,2353,2022
3991,2022,2023,2354
3992,2355,2354,2023
3993,2023,2024,2355
3994,2356,2355,2024
3995,2024,2025,2356
3996,2356,2025,2357
3997,2025,2026,2357
3998,2358,2357,2026
3999,2026,2027,2358
4000,2358,2027,2359
4001,2027,2028,2359
4002,2028,2360,2359
4003,2028,2029,2360
4004,2361,2360,2029
4005,2029,2030,2361
4006,2362,2361,2030
4007,2031,2032,2363
4008,2364,2363,2032
4009,2032,2033,2364
4010,2365,2364,2033
4011,2033,2034,2365
4012,2366,2365,2034
4013,2034,2035,2366
4014,2367,2366,2035
4015,2035,2036,2367
4016,2036,2368,2367
4017,2036,2037,2368
4018,2369,2368,2037
4019,2037,2038,2369
4020,2369,2038,2370
4021,2038,2039,2370
4022,2371,2370,2039
4023,2039,2040,2371
4024,2372,2371,2040
4025,2040,2041,2372
4026,2373,2372,2041
4027,2041,2042,2373
4028,2374,2373,2042
4029,2042,2043,2374
4030,2375,2374,2043
4031,2043,2044,2375
4032,2376,2375,2044
4033,2044,2045,2376
4034,2377,2376,2045
4035,2045,2046,2377
4036,2378,2377,2046
4037,2046,2047,2378
4038,2379,2378,2047
4039,2047,2048,2379
4040,2380,2379,2048
4041,2381,2380,2049
4042,2048,2049,2380
4043,2049,2050,2381
4044,2382,2381,2050
4045,2050,2051,2382
4046,2051,2383,2382
4047,2384,2383,2052
4048,2051,2052,2383
4049,2385,2384,2053
4050,2052,2053,2384
4051,2386,2385,2054
4052,2054,2385,2053
4053,2387,2386,2055
4054,2054,2055,2386
4055,2388,2387,2056
4056,2055,2056,2387
4057,2389,2388,2057
4058,2056,2057,2388
4059,2390,2389,2058
4060,2389,2057,2058
4061,2391,2390,2059
4062,2058,2059,2390
4063,2392,2391,2060
4064,2059,2060,2391
4065,2393,2392,2061
4066,2060,2061,2392
4067,2394,2393,2062
4068,2062,2393,2061
4069,2062,2063,2394
4070,2395,2394,2063
4071,2396,2395,2064
4072,2063,2064,2395
4073,2397,2396,2065
4074,2064,2065,2396
4075,2398,2397,2066
4076,2065,2066,2397
4077,2066,2067,2398
4078,2399,2398,2067
4079,2067,2068,2399
4080,2399,2068,2400
4081,2401,2400,2069
4082,2068,2069,2400
4083,2402,2401,2070
4084,2069,2070,2401
4085,2238,2402,2071
4086,2070,2071,2402
4087,2031,2363,2030
4088,2403,2030,2363
4089,2404,2362,2403
4090,2030,2403,2362
4091,2239,2405,2238
4092,2402,2238,2405
4093,2240,2406,2239
4094,2405,2239,2406
4095,2406,2240,2407
4096,2241,2407,2240
4097,2407,2241,2408
4098,2242,2408,2241
4099,2408,2242,2244
4100,2243,2244,2242
4101,2409,2087,2089
4102,2089,2087,2088
4103,2409,2089,2410
4104,2090,2410,2089
4105,2410,2090,2411
4106,2091,2411,2090
4107,2092,2412,2091
4108,2411,2091,2412
4109,2092,2093,2412
4110,2413,2412,2093
4111,2093,2094,2413
4112,2414,2413,2094
4113,2094,2095,2414
4114,2415,2414,2095
4115,2116,2415,2115
4116,2095,2115,2415
4117,2102,2103,2416
4118,2119,2416,2103
4119,2118,2102,2417
4120,2102,2416,2417
4121,2418,1902,2179
4122,1903,2179,1902
4123,2419,2418,2180
4124,2180,2418,2179
4125,2180,2181,2419
4126,2420,2419,2181
4127,2181,2182,2420
4128,2421,2420,2182
4129,2422,2421,2183
4130,2183,2421,2182
4131,2423,2422,2184
4132,2183,2184,2422
4133,2184,2185,2423
4134,2424,2423,2185
4135,2425,2424,2187
4136,2185,2187,2424
4137,2426,2425,2427
4138,2187,2427,2425
4139,2186,2428,2187
4140,2187,2428,2427
4141,2188,2429,2186
4142,2428,2186,2429
4143,2189,2430,2188
4144,2429,2188,2430
4145,2430,2189,2431
4146,2190,2431,2189
4147,2431,2190,2432
4148,2432,2190,2191
4149,2432,2191,2193
4150,2192,2193,2191
4151,2433,2432,2194
4152,2193,2194,2432
4153,2434,2433,2195
4154,2194,2195,2433
4155,2435,2434,2196
4156,2195,2196,2434
4157,2196,2197,2435
4158,2436,2435,2197
4159,2197,2198,2436
4160,2437,2436,2198
4161,2198,2199,2437
4162,2438,2437,2199
4163,2439,2438,2200
4164,2199,2200,2438
4165,2440,2439,2201
4166,2200,2201,2439
4167,2441,2440,2442
4168,2440,2201,2442
4169,2442,2201,2443
4170,2202,2443,2201
4171,2203,2444,2202
4172,2443,2202,2444
4173,2204,2445,2203
4174,2445,2444,2203
4175,2205,2446,2204
4176,2445,2204,2446
4177,2206,2447,2205
4178,2446,2205,2447
4179,2448,2449,2209
4180,2208,2209,2449
4181,2450,2448,2210
4182,2210,2448,2209
4183,2451,2450,2211
4184,2210,2211,2450
4185,2452,2451,2212
4186,2211,2212,2451
4187,2212,2213,2452
4188,2452,2213,2453
4189,2213,2454,2453
4190,2455,2453,2454
4191,2214,2456,2213
4192,2454,2213,2456
4193,2215,2457,2214
4194,2214,2457,2456
4195,2457,2215,2458
4196,2215,2216,2458
4197,2458,2216,2459
4198,2459,2216,2217
4199,2459,2217,2460
4200,2218,2460,2217
4201,2408,2244,2461
4202,2245,2461,2244
4203,2461,2245,2247
4204,2246,2247,2245
4205,2462,2461,2248
4206,2247,2248,2461
4207,2248,2249,2462
4208,2463,2462,2249
4209,2252,2464,2250
4210,2250,2464,2465
4211,2253,2466,2252
4212,2252,2466,2464
4213,2466,2253,2467
4214,2254,2467,2253
4215,2467,2254,2468
4216,2255,2468,2254
4217,2468,2255,2469
4218,2255,2256,2469
4219,2469,2256,2470
4220,2470,2256,2257
4221,2470,2257,2471
4222,2258,2471,2257
4223,2472,2471,2259
4224,2258,2259,2471
4225,2473,2472,2260
4226,2259,2260,2472
4227,2474,2473,2261
4228,2260,2261,2473
4229,2475,2474,2262
4230,2261,2262,2474
4231,2475,2262,2476
4232,2476,2262,2263
4233,2476,2263,2477
4234,2264,2477,2263
4235,2477,2264,2478
4236,2265,2478,2264
4237,2478,2265,2479
4238,2266,2479,2265
4239,2479,2266,2480
4240,2267,2480,2266
4241,2480,2267,2481
4242,2267,2268,2481
4243,2269,2482,2268
4244,2481,2268,2482
4245,2270,2483,2269
4246,2482,2269,2483
4247,2072,2073,2270
4248,2483,2270,2073
4249,2484,2237,2171
4250,2170,2171,2237
4251,2172,2485,2171
4252,2171,2485,2484
4253,2485,2172,2486
4254,2486,2172,2173
4255,2486,2173,2487
4256,2174,2487,2173
4257,2487,2174,2176
4258,2176,2174,2175
4259,2176,2177,2487
4260,2487,2177,2488
4261,2489,2488,2178
4262,2178,2488,2177
4263,1870,1871,2178
4264,2490,2178,1871
4265,2272,2490,1872
4266,1871,1872,2490
4267,2272,2489,2490
4268,2178,2490,2489
4269,2271,2491,2272
4270,2491,2489,2272
4271,2492,2491,2273
4272,2491,2271,2273
4273,2493,2492,2274
4274,2273,2274,2492
4275,2274,2275,2493
4276,2494,2493,2275
4277,2275,2276,2494
4278,2495,2494,2276
4279,2496,2495,2278
4280,2276,2278,2495
4281,2497,2496,2498
4282,2278,2498,2496
4283,2277,2499,2278
4284,2498,2278,2499
4285,2279,2280,2277
4286,2499,2277,2280
4287,2500,2135,2137
4288,2136,2137,2135
4289,2501,2500,2138
4290,2137,2138,2500
4291,2502,2501,2139
4292,2138,2139,2501
4293,2502,2139,2503
4294,2503,2139,2140
4295,2503,2140,2504
4296,2141,2504,2140
4297,2141,2142,2504
4298,2505,2504,2142
4299,2142,2143,2505
4300,2506,2505,2143
4301,2507,2506,2144
4302,2143,2144,2506
4303,2144,2145,2507
4304,2508,2507,2145
4305,2509,2508,2146
4306,2145,2146,2508
4307,2510,2509,2511
4308,2511,2509,2146
4309,2511,2146,2512
4310,2147,2512,2146
4311,2512,2147,2513
4312,2148,2513,2147
4313,2149,2514,2148
4314,2513,2148,2514
4315,2514,2149,2515
4316,2150,2515,2149
4317,2150,2151,2515
4318,2516,2515,2151
4319,2517,2516,2152
4320,2151,2152,2516
4321,2518,2517,2153
4322,2152,2153,2517
4323,2519,2518,2154
4324,2153,2154,2518
4325,2520,2519,2155
4326,2155,2519,2154
4327,2155,2156,2520
4328,2521,2520,2156
4329,2156,2157,2521
4330,2522,2521,2157
4331,2523,2522,2158
4332,2157,2158,2522
4333,2524,2523,2525
4334,2158,2525,2523
4335,2525,2158,2526
4336,2159,2526,2158
4337,2526,2159,2527
4338,2160,2527,2159
4339,2527,2160,2528
4340,2161,2528,2160
4341,2528,2161,2529
4342,2162,2529,2161
4343,2529,2162,2164
4344,2163,2164,2162
4345,2498,2499,2281
4346,2281,2499,2280
4347,2498,2281,2530
4348,2282,2530,2281
4349,2531,2530,2283
4350,2282,2283,2530
4351,2532,2531,2284
4352,2284,2531,2283
4353,2533,2532,2285
4354,2284,2285,2532
4355,2285,2286,2533
4356,2287,2533,2286
4357,2288,2534,2287
4358,2533,2287,2534
4359,2289,2535,2288
4360,2288,2535,2534
4361,2290,2536,2289
4362,2535,2289,2536
4363,2291,2537,2290
4364,2536,2290,2537
4365,2537,2291,2538
4366,2292,2538,2291
4367,2538,2292,2294
4368,2293,2294,2292
4369,2539,2538,2295
4370,2294,2295,2538
4371,2540,2539,2296
4372,2295,2296,2539
4373,2296,2297,2540
4374,2541,2540,2297
4375,2297,2298,2541
4376,2541,2298,2542
4377,2543,2542,2299
4378,2299,2542,2298
4379,2300,2544,2299
4380,2543,2299,2544
4381,2544,2300,2545
4382,2545,2300,2301
4383,2302,2546,2301
4384,2545,2301,2546
4385,2303,2547,2302
4386,2546,2302,2547
4387,2304,2548,2303
4388,2547,2303,2548
4389,2305,2549,2304
4390,2548,2304,2549
4391,2306,2550,2305
4392,2305,2550,2549
4393,2307,2551,2306
4394,2550,2306,2551
4395,2308,2552,2307
4396,2551,2307,2552
4397,2309,2553,2308
4398,2552,2308,2553
4399,2310,2554,2309
4400,2553,2309,2554
4401,2311,2555,2310
4402,2554,2310,2555
4403,2312,2556,2311
4404,2311,2556,2555
4405,2313,2557,2312
4406,2556,2312,2557
4407,2314,2558,2313
4408,2557,2313,2558
4409,2315,2559,2314
4410,2558,2314,2559
4411,2316,2560,2315
4412,2559,2315,2560
4413,2317,2561,2316
4414,2560,2316,2561
4415,2318,2562,2317
4416,2561,2317,2562
4417,2319,2563,2318
4418,2562,2318,2563
4419,2320,2564,2319
4420,2319,2564,2563
4421,2321,2565,2320
4422,2564,2320,2565
4423,2322,2566,2321
4424,2565,2321,2566
4425,2323,2567,2322
4426,2566,2322,2567
4427,2324,2568,2323
4428,2567,2323,2568
4429,2325,2569,2324
4430,2324,2569,2568
4431,2326,2570,2325
4432,2325,2570,2569
4433,2327,2571,2326
4434,2571,2570,2326
4435,2328,2572,2327
4436,2571,2327,2572
4437,2329,2573,2328
4438,2572,2328,2573
4439,2330,2574,2329
4440,2329,2574,2573
4441,2331,2575,2330
4442,2575,2574,2330
4443,2332,2576,2331
4444,2331,2576,2575
4445,2333,2577,2332
4446,2577,2576,2332
4447,2334,2578,2333
4448,2577,2333,2578
4449,2335,2579,2334
4450,2578,2334,2579
4451,2336,2580,2335
4452,2579,2335,2580
4453,2337,2581,2336
4454,2580,2336,2581
4455,2338,2582,2337
4456,2581,2337,2582
4457,2339,2583,2338
4458,2582,2338,2583
4459,2340,2584,2339
4460,2584,2583,2339
4461,2341,2585,2340
4462,2340,2585,2584
4463,2342,2586,2341
4464,2585,2341,2586
4465,2586,2342,2587
4466,2343,2587,2342
4467,2587,2343,2588
4468,2344,2588,2343
4469,2345,2589,2344
4470,2588,2344,2589
4471,2346,2590,2345
4472,2589,2345,2590
4473,2347,2591,2346
4474,2590,2346,2591
4475,2348,2592,2347
4476,2591,2347,2592
4477,2349,2593,2348
4478,2592,2348,2593
4479,2350,2594,2349
4480,2593,2349,2594
4481,2351,2595,2350
4482,2594,2350,2595
4483,2352,2596,2351
4484,2595,2351,2596
4485,2353,2597,2352
4486,2597,2596,2352
4487,2353,2354,2597
4488,2354,2598,2597
4489,2354,2355,2598
4490,2599,2598,2355
4491,2355,2356,2599
4492,2600,2599,2356
4493,2356,2357,2600
4494,2601,2600,2357
4495,2357,2358,2601
4496,2602,2601,2358
4497,2358,2359,2602
4498,2603,2602,2359
4499,2359,2360,2603
4500,2604,2603,2360
4501,2360,2361,2604
4502,2605,2604,2361
4503,2361,2362,2605
4504,2605,2362,2606
4505,2607,2606,2404
4506,2404,2606,2362
4507,2608,2607,2609
4508,2609,2607,2404
4509,2403,2610,2404
4510,2404,2610,2609
4511,2363,2611,2403
4512,2610,2403,2611
4513,2364,2612,2363
4514,2363,2612,2611
4515,2364,2365,2612
4516,2613,2612,2365
4517,2365,2366,2613
4518,2614,2613,2366
4519,2366,2367,2614
4520,2615,2614,2367
4521,2367,2368,2615
4522,2616,2615,2368
4523,2368,2369,2616
4524,2617,2616,2369
4525,2618,2617,2370
4526,2370,2617,2369
4527,2619,2618,2371
4528,2370,2371,2618
4529,2371,2372,2619
4530,2620,2619,2372
4531,2621,2620,2373
4532,2372,2373,2620
4533,2373,2374,2621
4534,2374,2622,2621
4535,2374,2375,2622
4536,2623,2622,2375
4537,2375,2376,2623
4538,2624,2623,2376
4539,2376,2377,2624
4540,2377,2625,2624
4541,2377,2378,2625
4542,2626,2625,2378
4543,2378,2379,2626
4544,2627,2626,2379
4545,2379,2380,2627
4546,2628,2627,2380
4547,2629,2628,2381
4548,2380,2381,2628
4549,2630,2629,2382
4550,2381,2382,2629
4551,2382,2383,2630
4552,2631,2630,2383
4553,2632,2631,2384
4554,2383,2384,2631
4555,2633,2632,2385
4556,2384,2385,2632
4557,2634,2633,2386
4558,2633,2385,2386
4559,2635,2634,2387
4560,2386,2387,2634
4561,2636,2635,2388
4562,2387,2388,2635
4563,2637,2636,2389
4564,2388,2389,2636
4565,2638,2637,2390
4566,2389,2390,2637
4567,2639,2638,2391
4568,2638,2390,2391
4569,2640,2639,2392
4570,2392,2639,2391
4571,2641,2640,2393
4572,2392,2393,2640
4573,2642,2641,2394
4574,2393,2394,2641
4575,2394,2395,2642
4576,2643,2642,2395
4577,2644,2643,2396
4578,2395,2396,2643
4579,2645,2644,2397
4580,2396,2397,2644
4581,2646,2645,2398
4582,2397,2398,2645
4583,2398,2399,2646
4584,2647,2646,2399
4585,2399,2400,2647
4586,2648,2647,2400
4587,2400,2401,2648
4588,2649,2648,2401
4589,2401,2402,2649
4590,2405,2649,2402
4591,2650,1901,2418
4592,1902,2418,1901
4593,2651,2650,2419
4594,2418,2419,2650
4595,2419,2420,2651
4596,2652,2651,2420
4597,2420,2421,2652
4598,2652,2421,2653
4599,2421,2422,2653
4600,2654,2653,2422
4601,2655,2654,2423
4602,2422,2423,2654
4603,2656,2655,2424
4604,2423,2424,2655
4605,2657,2656,2425
4606,2424,2425,2656
4607,2658,2657,2426
4608,2425,2426,2657
4609,2659,2660,2426
4610,2426,2660,2658
4611,2659,2426,2428
4612,2426,2427,2428
4613,2659,2428,2661
4614,2429,2661,2428
4615,2430,2662,2429
4616,2661,2429,2662
4617,2431,2663,2430
4618,2662,2430,2663
4619,2432,2664,2431
4620,2663,2431,2664
4621,2432,2433,2664
4622,2665,2664,2433
4623,2666,2665,2434
4624,2434,2665,2433
4625,2434,2435,2666
4626,2667,2666,2435
4627,2435,2436,2667
4628,2668,2667,2436
4629,2436,2437,2668
4630,2669,2668,2437
4631,2437,2438,2669
4632,2670,2669,2438
4633,2438,2439,2670
4634,2670,2439,2671
4635,2672,2671,2440
4636,2439,2440,2671
4637,2673,2672,2441
4638,2440,2441,2672
4639,2674,2673,2675
4640,2673,2441,2675
4641,2675,2441,2676
4642,2441,2442,2676
4643,2676,2442,2677
4644,2677,2442,2443
4645,2677,2443,2678
4646,2444,2678,2443
4647,2445,2679,2444
4648,2678,2444,2679
4649,2446,2680,2445
4650,2679,2445,2680
4651,2680,2446,2681
4652,2447,2681,2446
4653,2682,2681,2448
4654,2449,2448,2681
4655,2683,2682,2450
4656,2448,2450,2682
4657,2684,2683,2451
4658,2451,2683,2450
4659,2685,2684,2452
4660,2451,2452,2684
4661,2452,2453,2685
4662,2686,2685,2453
4663,2453,2455,2686
4664,2687,2686,2455
4665,2455,2688,2687
4666,2687,2688,2689
4667,2454,2690,2455
4668,2688,2455,2690
4669,2456,2691,2454
4670,2691,2690,2454
4671,2457,2692,2456
4672,2691,2456,2692
4673,2458,2693,2457
4674,2692,2457,2693
4675,2694,2693,2459
4676,2458,2459,2693
4677,2694,2459,2695
4678,2695,2459,2460
4679,2695,2460,2696
4680,2696,2460,2697
4681,2460,2218,2697
4682,2219,2697,2218
4683,2220,2221,2219
4684,2697,2219,2221
4685,2221,2222,2697
4686,2696,2697,2222
4687,2222,2223,2696
4688,2698,2696,2223
4689,2699,2698,2225
4690,2223,2225,2698
4691,2700,2699,2701
4692,2225,2701,2699
4693,2701,2225,2702
4694,2224,2702,2225
4695,2702,2224,2703
4696,2226,2703,2224
4697,2703,2226,2228
4698,2227,2228,2226
4699,2696,2698,2695
4700,2704,2695,2698
4701,2705,2704,2699
4702,2698,2699,2704
4703,2706,2705,2700
4704,2699,2700,2705
4705,2707,2706,2708
4706,2700,2708,2706
4707,2701,2709,2700
4708,2708,2700,2709
4709,2709,2701,2710
4710,2710,2701,2702
4711,2703,2711,2702
4712,2710,2702,2711
4713,2711,2703,2712
4714,2228,2712,2703
4715,2229,2713,2228
4716,2712,2228,2713
4717,2714,2075,2078
4718,2078,2075,1573
4719,2715,2076,2714
4720,2075,2714,2076
4721,1655,1886,1654
4722,2169,1654,1886
4723,2716,2169,1887
4724,1886,1887,2169
4725,1887,1888,2716
4726,2717,2716,1888
4727,2718,2717,1889
4728,1888,1889,2717
4729,2719,2718,1890
4730,1890,2718,1889
4731,2720,2719,1891
4732,1890,1891,2719
4733,2721,2720,1892
4734,1891,1892,2720
4735,2722,2721,1893
4736,2721,1892,1893
4737,2723,2722,1894
4738,1893,1894,2722
4739,2724,2723,1895
4740,1894,1895,2723
4741,1896,2725,1895
4742,2724,1895,2725
4743,1897,2726,1896
4744,1896,2726,2725
4745,1898,2727,1897
4746,2726,1897,2727
4747,1899,2728,1898
4748,2727,1898,2728
4749,2728,1899,2729
4750,1900,2729,1899
4751,2729,1900,2650
4752,2650,1900,1901
4753,2713,2229,2730
4754,2230,2730,2229
4755,2231,2731,2230
4756,2730,2230,2731
4757,2232,2732,2231
4758,2731,2231,2732
4759,2232,2233,2732
4760,2733,2732,2233
4761,2734,2733,2235
4762,2733,2233,2235
4763,2235,2735,2734
4764,2736,2734,2735
4765,2735,2235,2737
4766,2234,2737,2235
4767,2737,2234,2738
4768,2236,2738,2234
4769,2738,2236,2484
4770,2237,2484,2236
4771,2129,2130,2128
4772,2739,2128,2130
4773,2130,2131,2739
4774,2740,2739,2131
4775,2131,2741,2740
4776,2742,2740,2741
4777,2132,2743,2131
4778,2741,2131,2743
4779,2743,2132,2744
4780,2133,2744,2132
4781,2744,2133,2745
4782,2134,2745,2133
4783,2135,2500,2134
4784,2134,2500,2745
4785,2746,2073,2715
4786,2076,2715,2073
4787,2715,2747,2746
4788,2748,2746,2747
4789,2747,2715,2749
4790,2714,2749,2715
4791,2749,2714,2750
4792,2078,2750,2714
4793,2077,2751,2078
4794,2078,2751,2750
4795,2079,2752,2077
4796,2751,2077,2752
4797,2080,2753,2079
4798,2752,2079,2753
4799,2081,2754,2080
4800,2753,2080,2754
4801,2081,2082,2754
4802,2755,2754,2082
4803,2082,2083,2755
4804,2756,2755,2083
4805,2083,2085,2756
4806,2757,2756,2085
4807,2085,2758,2757
4808,2759,2757,2758
4809,2084,2760,2085
4810,2758,2085,2760
4811,2086,2761,2084
4812,2760,2084,2761
4813,2761,2086,2409
4814,2087,2409,2086
4815,2762,2529,2165
4816,2164,2165,2529
4817,2763,2762,2166
4818,2165,2166,2762
4819,2764,2763,2168
4820,2168,2763,2166
4821,2764,2168,2765
4822,2766,2765,2168
4823,2766,2168,2767
4824,2167,2767,2168
4825,2767,2167,2716
4826,2169,2716,2167
4827,2649,2405,2768
4828,2406,2768,2405
4829,2768,2406,2769
4830,2407,2769,2406
4831,2769,2407,2770
4832,2408,2770,2407
4833,2770,2408,2462
4834,2461,2462,2408
4835,2250,2465,2251
4836,2771,2251,2465
4837,2251,2771,2772
4838,2771,2773,2772
4839,2488,2489,2774
4840,2489,2491,2774
4841,2775,2774,2492
4842,2491,2492,2774
4843,2492,2493,2775
4844,2776,2775,2493
4845,2493,2494,2776
4846,2777,2776,2494
4847,2494,2495,2777
4848,2778,2777,2495
4849,2779,2778,2496
4850,2495,2496,2778
4851,2780,2779,2497
4852,2497,2779,2496
4853,2781,2780,2782
4854,2782,2780,2497
4855,2498,2530,2497
4856,2782,2497,2530
4857,2783,2745,2501
4858,2745,2500,2501
4859,2784,2783,2502
4860,2501,2502,2783
4861,2784,2502,2785
4862,2503,2785,2502
4863,2785,2503,2786
4864,2504,2786,2503
4865,2504,2505,2786
4866,2787,2786,2505
4867,2505,2506,2787
4868,2788,2787,2506
4869,2506,2507,2788
4870,2789,2788,2507
4871,2790,2789,2508
4872,2507,2508,2789
4873,2508,2509,2790
4874,2791,2790,2509
4875,2509,2510,2791
4876,2510,2792,2791
4877,2793,2792,2794
4878,2510,2794,2792
4879,2794,2510,2795
4880,2511,2795,2510
4881,2795,2511,2796
4882,2512,2796,2511
4883,2796,2512,2797
4884,2513,2797,2512
4885,2797,2513,2798
4886,2514,2798,2513
4887,2799,2798,2515
4888,2798,2514,2515
4889,2515,2516,2799
4890,2516,2800,2799
4891,2801,2800,2517
4892,2516,2517,2800
4893,2802,2801,2518
4894,2517,2518,2801
4895,2520,2802,2519
4896,2519,2802,2518
4897,2117,2803,2116
4898,2415,2116,2803
4899,2118,2804,2117
4900,2803,2117,2804
4901,2804,2118,2805
4902,2417,2805,2118
4903,2806,2807,2417
4904,2805,2417,2807
4905,2417,2416,2806
4906,2808,2806,2416
4907,2416,2119,2808
4908,2808,2119,2809
4909,2810,2809,2120
4910,2119,2120,2809
4911,2811,2810,2121
4912,2120,2121,2810
4913,2121,2122,2811
4914,2812,2811,2122
4915,2122,2123,2812
4916,2124,2812,2123
4917,2813,2812,2125
4918,2124,2125,2812
4919,2530,2531,2782
4920,2782,2531,2814
4921,2532,2815,2531
4922,2814,2531,2815
4923,2533,2816,2532
4924,2815,2532,2816
4925,2816,2533,2817
4926,2534,2817,2533
4927,2817,2534,2818
4928,2535,2818,2534
4929,2538,2539,2819
4930,2820,2819,2539
4931,2539,2540,2820
4932,2821,2820,2540
4933,2822,2821,2541
4934,2821,2540,2541
4935,2823,2822,2542
4936,2541,2542,2822
4937,2824,2823,2543
4938,2542,2543,2823
4939,2824,2543,2825
4940,2544,2825,2543
4941,2545,2826,2544
4942,2544,2826,2825
4943,2546,2827,2545
4944,2826,2545,2827
4945,2547,2828,2546
4946,2827,2546,2828
4947,2548,2829,2547
4948,2828,2547,2829
4949,2549,2830,2548
4950,2829,2548,2830
4951,2550,2831,2549
4952,2830,2549,2831
4953,2551,2832,2550
4954,2831,2550,2832
4955,2552,2833,2551
4956,2832,2551,2833
4957,2553,2834,2552
4958,2833,2552,2834
4959,2554,2835,2553
4960,2553,2835,2834
4961,2555,2836,2554
4962,2835,2554,2836
4963,2556,2837,2555
4964,2836,2555,2837
4965,2557,2838,2556
4966,2837,2556,2838
4967,2838,2557,2839
4968,2558,2839,2557
4969,2559,2840,2558
4970,2558,2840,2839
4971,2840,2559,2841
4972,2841,2559,2560
4973,2841,2560,2842
4974,2561,2842,2560
4975,2562,2843,2561
4976,2842,2561,2843
4977,2843,2562,2844
4978,2563,2844,2562
4979,2564,2845,2563
4980,2563,2845,2844
4981,2565,2846,2564
4982,2845,2564,2846
4983,2566,2847,2565
4984,2846,2565,2847
4985,2567,2848,2566
4986,2847,2566,2848
4987,2568,2849,2567
4988,2848,2567,2849
4989,2569,2850,2568
4990,2568,2850,2849
4991,2570,2851,2569
4992,2850,2569,2851
4993,2571,2852,2570
4994,2851,2570,2852
4995,2572,2853,2571
4996,2571,2853,2852
4997,2573,2854,2572
4998,2853,2572,2854
4999,2854,2573,2855
5000,2574,2855,2573
5001,2575,2856,2574
5002,2574,2856,2855
5003,2576,2857,2575
5004,2856,2575,2857
5005,2577,2858,2576
5006,2857,2576,2858
5007,2578,2859,2577
5008,2858,2577,2859
5009,2579,2860,2578
5010,2859,2578,2860
5011,2580,2861,2579
5012,2860,2579,2861
5013,2581,2862,2580
5014,2861,2580,2862
5015,2582,2863,2581
5016,2862,2581,2863
5017,2583,2864,2582
5018,2582,2864,2863
5019,2584,2865,2583
5020,2864,2583,2865
5021,2585,2866,2584
5022,2865,2584,2866
5023,2867,2866,2586
5024,2585,2586,2866
5025,2868,2867,2587
5026,2586,2587,2867
5027,2868,2587,2869
5028,2588,2869,2587
5029,2589,2870,2588
5030,2869,2588,2870
5031,2590,2871,2589
5032,2870,2589,2871
5033,2591,2872,2590
5034,2871,2590,2872
5035,2592,2873,2591
5036,2872,2591,2873
5037,2593,2874,2592
5038,2873,2592,2874
5039,2594,2875,2593
5040,2874,2593,2875
5041,2595,2876,2594
5042,2875,2594,2876
5043,2596,2877,2595
5044,2876,2595,2877
5045,2597,2878,2596
5046,2877,2596,2878
5047,2597,2598,2878
5048,2879,2878,2598
5049,2598,2599,2879
5050,2599,2880,2879
5051,2599,2600,2880
5052,2881,2880,2600
5053,2600,2601,2881
5054,2882,2881,2601
5055,2883,2882,2602
5056,2602,2882,2601
5057,2884,2883,2603
5058,2602,2603,2883
5059,2885,2884,2604
5060,2603,2604,2884
5061,2885,2604,2886
5062,2605,2886,2604
5063,2718,2767,2717
5064,2716,2717,2767
5065,2887,2781,2814
5066,2782,2814,2781
5067,2815,2888,2814
5068,2814,2888,2887
5069,2888,2815,2889
5070,2816,2889,2815
5071,2889,2816,2890
5072,2817,2890,2816
5073,2818,2891,2817
5074,2890,2817,2891
5075,2891,2818,2892
5076,2893,2892,2818
5077,2819,2820,2892
5078,2894,2892,2820
5079,2895,2894,2821
5080,2820,2821,2894
5081,2896,2895,2822
5082,2821,2822,2895
5083,2897,2896,2823
5084,2822,2823,2896
5085,2823,2824,2897
5086,2898,2897,2824
5087,2825,2899,2824
5088,2899,2898,2824
5089,2826,2900,2825
5090,2900,2899,2825
5091,2827,2901,2826
5092,2900,2826,2901
5093,2828,2902,2827
5094,2901,2827,2902
5095,2829,2903,2828
5096,2902,2828,2903
5097,2830,2904,2829
5098,2903,2829,2904
5099,2905,2904,2831
5100,2830,2831,2904
5101,2905,2831,2906
5102,2832,2906,2831
5103,2906,2832,2907
5104,2833,2907,2832
5105,2907,2833,2908
5106,2834,2908,2833
5107,2835,2909,2834
5108,2834,2909,2908
5109,2836,2910,2835
5110,2910,2909,2835
5111,2837,2911,2836
5112,2910,2836,2911
5113,2911,2837,2912
5114,2838,2912,2837
5115,2912,2838,2913
5116,2913,2838,2839
5117,2913,2839,2914
5118,2914,2839,2840
5119,2914,2840,2915
5120,2841,2915,2840
5121,2915,2841,2916
5122,2842,2916,2841
5123,2916,2842,2917
5124,2843,2917,2842
5125,2917,2843,2918
5126,2844,2918,2843
5127,2845,2919,2844
5128,2918,2844,2919
5129,2846,2920,2845
5130,2919,2845,2920
5131,2847,2921,2846
5132,2920,2846,2921
5133,2848,2922,2847
5134,2921,2847,2922
5135,2849,2923,2848
5136,2848,2923,2922
5137,2850,2924,2849
5138,2923,2849,2924
5139,2851,2925,2850
5140,2924,2850,2925
5141,2925,2851,2926
5142,2852,2926,2851
5143,2926,2852,2927
5144,2853,2927,2852
5145,2927,2853,2928
5146,2854,2928,2853
5147,2855,2929,2854
5148,2928,2854,2929
5149,2929,2855,2930
5150,2930,2855,2856
5151,2930,2856,2931
5152,2856,2857,2931
5153,2858,2932,2857
5154,2857,2932,2931
5155,2859,2933,2858
5156,2932,2858,2933
5157,2933,2859,2934
5158,2934,2859,2860
5159,2861,2935,2860
5160,2860,2935,2934
5161,2862,2936,2861
5162,2935,2861,2936
5163,2863,2937,2862
5164,2936,2862,2937
5165,2864,2938,2863
5166,2937,2863,2938
5167,2865,2939,2864
5168,2938,2864,2939
5169,2866,2940,2865
5170,2939,2865,2940
5171,2866,2867,2940
5172,2867,2941,2940
5173,2867,2868,2941
5174,2942,2941,2868
5175,2870,2943,2869
5176,2943,2944,2869
5177,2871,2945,2870
5178,2943,2870,2945
5179,2872,2946,2871
5180,2871,2946,2945
5181,2873,2947,2872
5182,2946,2872,2947
5183,2874,2948,2873
5184,2947,2873,2948
5185,2875,2949,2874
5186,2948,2874,2949
5187,2876,2950,2875
5188,2949,2875,2950
5189,2950,2876,2951
5190,2877,2951,2876
5191,2951,2877,2952
5192,2952,2877,2878
5193,2953,2952,2879
5194,2879,2952,2878
5195,2954,2953,2880
5196,2953,2879,2880
5197,2880,2881,2954
5198,2955,2954,2881
5199,2956,2955,2882
5200,2881,2882,2955
5201,2957,2956,2883
5202,2883,2956,2882
5203,2958,2957,2884
5204,2957,2883,2884
5205,2958,2884,2959
5206,2885,2959,2884
5207,2959,2885,2960
5208,2886,2960,2885
5209,2960,2886,2608
5210,2607,2608,2886
5211,2869,2944,2868
5212,2961,2868,2944
5213,2962,2942,2961
5214,2868,2961,2942
5215,2963,2483,2746
5216,2073,2746,2483
5217,2964,2963,2748
5218,2746,2748,2963
5219,2965,2964,2966
5220,2966,2964,2748
5221,2747,2967,2748
5222,2748,2967,2966
5223,2967,2747,2968
5224,2749,2968,2747
5225,2750,2969,2749
5226,2968,2749,2969
5227,2751,2970,2750
5228,2750,2970,2969
5229,2752,2971,2751
5230,2970,2751,2971
5231,2753,2972,2752
5232,2752,2972,2971
5233,2754,2973,2753
5234,2972,2753,2973
5235,2974,2973,2755
5236,2754,2755,2973
5237,2755,2756,2974
5238,2975,2974,2756
5239,2756,2757,2975
5240,2976,2975,2757
5241,2757,2759,2976
5242,2977,2976,2759
5243,2978,2977,2979
5244,2759,2979,2977
5245,2758,2980,2759
5246,2979,2759,2980
5247,2760,2981,2758
5248,2980,2758,2981
5249,2761,2982,2760
5250,2760,2982,2981
5251,2409,2983,2761
5252,2982,2761,2983
5253,2410,2984,2409
5254,2409,2984,2983
5255,2411,2985,2410
5256,2984,2410,2985
5257,2412,2986,2411
5258,2985,2411,2986
5259,2412,2413,2986
5260,2987,2986,2413
5261,2413,2414,2987
5262,2987,2414,2988
5263,2414,2415,2988
5264,2989,2988,2415
5265,2990,2989,2803
5266,2415,2803,2989
5267,2804,2991,2803
5268,2991,2990,2803
5269,2805,2992,2804
5270,2992,2991,2804
5271,2807,2993,2805
5272,2992,2805,2993
5273,2994,2995,2807
5274,2993,2807,2995
5275,2996,2994,2806
5276,2994,2807,2806
5277,2997,2996,2808
5278,2806,2808,2996
5279,2810,2997,2809
5280,2997,2808,2809
5281,2998,2694,2704
5282,2695,2704,2694
5283,2999,2998,2705
5284,2704,2705,2998
5285,2705,2706,2999
5286,2999,2706,3000
5287,3001,3000,2707
5288,2706,2707,3000
5289,3002,3001,3003
5290,2707,3003,3001
5291,2708,3004,2707
5292,3003,2707,3004
5293,2709,3005,2708
5294,3004,2708,3005
5295,2710,3006,2709
5296,3006,3005,2709
5297,3006,2710,3007
5298,2711,3007,2710
5299,3007,2711,3008
5300,2712,3008,2711
5301,3008,2712,3009
5302,2713,3009,2712
5303,3009,2713,3010
5304,2730,3010,2713
5305,2731,3011,2730
5306,3010,2730,3011
5307,2732,3012,2731
5308,3011,2731,3012
5309,2732,2733,3012
5310,3013,3012,2733
5311,2733,2734,3013
5312,3014,3013,2734
5313,2734,2736,3014
5314,3015,3014,2736
5315,2736,3016,3015
5316,3017,3015,3016
5317,3016,2736,3018
5318,2735,3018,2736
5319,3018,2735,3019
5320,2737,3019,2735
5321,3020,3019,2738
5322,2737,2738,3019
5323,2738,2484,3020
5324,3020,2484,2485
5325,2648,2649,3021
5326,2768,3021,2649
5327,3021,2768,3022
5328,2768,2769,3022
5329,2770,3023,2769
5330,3022,2769,3023
5331,3024,3025,2773
5332,2772,2773,3025
5333,3026,3024,3027
5334,3027,3024,2773
5335,2771,3028,2773
5336,3027,2773,3028
5337,2465,3029,2771
5338,3028,2771,3029
5339,2464,3030,2465
5340,2465,3030,3029
5341,2466,3031,2464
5342,3030,2464,3031
5343,2467,3032,2466
5344,3031,2466,3032
5345,2468,3033,2467
5346,3032,2467,3033
5347,3033,2468,3034
5348,2469,3034,2468
5349,3034,2469,3035
5350,2470,3035,2469
5351,3035,2470,3036
5352,2471,3036,2470
5353,3037,3036,2472
5354,2471,2472,3036
5355,3038,3037,2473
5356,2472,2473,3037
5357,3039,3038,2474
5358,2473,2474,3038
5359,3040,3039,2475
5360,2474,2475,3039
5361,3040,2475,3041
5362,3041,2475,2476
5363,3041,2476,3042
5364,2477,3042,2476
5365,2478,3043,2477
5366,3042,2477,3043
5367,3043,2478,3044
5368,3044,2478,2479
5369,3044,2479,3045
5370,2480,3045,2479
5371,3045,2480,3046
5372,2481,3046,2480
5373,2482,3047,2481
5374,3046,2481,3047
5375,3047,2482,2963
5376,2483,2963,2482
5377,2886,2605,2607
5378,2606,2607,2605
5379,2892,2894,2891
5380,3048,2891,2894
5381,3049,3048,2895
5382,2894,2895,3048
5383,3050,3049,2896
5384,2895,2896,3049
5385,3051,3050,2897
5386,2896,2897,3050
5387,3051,2897,3052
5388,2898,3052,2897
5389,3052,2898,3053
5390,2899,3053,2898
5391,2900,3054,2899
5392,3053,2899,3054
5393,2901,3055,2900
5394,3054,2900,3055
5395,2902,3056,2901
5396,3055,2901,3056
5397,2903,3057,2902
5398,2902,3057,3056
5399,2903,2904,3057
5400,3058,3057,2904
5401,3059,3058,2905
5402,2904,2905,3058
5403,3059,2905,3060
5404,3060,2905,2906
5405,3060,2906,3061
5406,2907,3061,2906
5407,2908,3062,2907
5408,3061,2907,3062
5409,2909,3063,2908
5410,3062,2908,3063
5411,2910,3064,2909
5412,3064,3063,2909
5413,2911,3065,2910
5414,3064,2910,3065
5415,3065,2911,3066
5416,3066,2911,2912
5417,2913,3067,2912
5418,3066,2912,3067
5419,3067,2913,3068
5420,2914,3068,2913
5421,2915,3069,2914
5422,3068,2914,3069
5423,3069,2915,3070
5424,2916,3070,2915
5425,3070,2916,3071
5426,3071,2916,2917
5427,2918,3072,2917
5428,3071,2917,3072
5429,2919,3073,2918
5430,3072,2918,3073
5431,2920,3074,2919
5432,3073,2919,3074
5433,3074,2920,3075
5434,2921,3075,2920
5435,2922,3076,2921
5436,3075,2921,3076
5437,3076,2922,3077
5438,3077,2922,2923
5439,3077,2923,3078
5440,2924,3078,2923
5441,3078,2924,3079
5442,2925,3079,2924
5443,3079,2925,3080
5444,2926,3080,2925
5445,3080,2926,3081
5446,3081,2926,2927
5447,3081,2927,3082
5448,2928,3082,2927
5449,3082,2928,3083
5450,3083,2928,2929
5451,3083,2929,3084
5452,2930,3084,2929
5453,3084,2930,3085
5454,2931,3085,2930
5455,3085,2931,3086
5456,2932,3086,2931
5457,3086,2932,3087
5458,2933,3087,2932
5459,3087,2933,3088
5460,2934,3088,2933
5461,3088,2934,3089
5462,2935,3089,2934
5463,2936,3090,2935
5464,3089,2935,3090
5465,2937,3091,2936
5466,3090,2936,3091
5467,2938,3092,2937
5468,3091,2937,3092
5469,2939,3093,2938
5470,3092,2938,3093
5471,2940,3094,2939
5472,3093,2939,3094
5473,2940,2941,3094
5474,3094,2941,3095
5475,2941,2942,3095
5476,3096,3095,2942
5477,2943,3097,2944
5478,3097,3098,2944
5479,2945,3099,2943
5480,2943,3099,3097
5481,2946,3100,2945
5482,3099,2945,3100
5483,2947,3101,2946
5484,3100,2946,3101
5485,2948,3102,2947
5486,3101,2947,3102
5487,2949,3103,2948
5488,3102,2948,3103
5489,2950,3104,2949
5490,3103,2949,3104
5491,3104,2950,3105
5492,2951,3105,2950
5493,3106,3105,2952
5494,2951,2952,3105
5495,2952,2953,3106
5496,3107,3106,2953
5497,2953,2954,3107
5498,3108,3107,2954
5499,3109,3108,2955
5500,3108,2954,2955
5501,3110,3109,2956
5502,2955,2956,3109
5503,3110,2956,3111
5504,2957,3111,2956
5505,3112,3111,2958
5506,2957,2958,3111
5507,3113,3112,2959
5508,2958,2959,3112
5509,3113,2959,3114
5510,2960,3114,2959
5511,2608,3115,2960
5512,2960,3115,3114
5513,2609,3116,2608
5514,2608,3116,3115
5515,2610,3117,2609
5516,3116,2609,3117
5517,2611,3118,2610
5518,3117,2610,3118
5519,2611,2612,3118
5520,3119,3118,2612
5521,2612,2613,3119
5522,3120,3119,2613
5523,2613,2614,3120
5524,3121,3120,2614
5525,2614,2615,3121
5526,3122,3121,2615
5527,2615,2616,3122
5528,3123,3122,2616
5529,2616,2617,3123
5530,3124,3123,2617
5531,3125,3124,2618
5532,2617,2618,3124
5533,3126,3125,2619
5534,2618,2619,3125
5535,3127,3126,2620
5536,2619,2620,3126
5537,2620,2621,3127
5538,2621,3128,3127
5539,2621,2622,3128
5540,3129,3128,2622
5541,2622,2623,3129
5542,3129,2623,3130
5543,2623,2624,3130
5544,3131,3130,2624
5545,2624,2625,3131
5546,3132,3131,2625
5547,2625,2626,3132
5548,3133,3132,2626
5549,3134,3133,2627
5550,2626,2627,3133
5551,2627,2628,3134
5552,3135,3134,2628
5553,2628,2629,3135
5554,3136,3135,2629
5555,2629,2630,3136
5556,3137,3136,2630
5557,3138,3137,2631
5558,2630,2631,3137
5559,3139,3138,2632
5560,2631,2632,3138
5561,3140,3139,2633
5562,2632,2633,3139
5563,3141,3140,2634
5564,2633,2634,3140
5565,3142,3141,2635
5566,2635,3141,2634
5567,3143,3142,2636
5568,2635,2636,3142
5569,3144,3143,2637
5570,2636,2637,3143
5571,3145,3144,2638
5572,2637,2638,3144
5573,3146,3145,2639
5574,2638,2639,3145
5575,3147,3146,2640
5576,2639,2640,3146
5577,2640,2641,3147
5578,3148,3147,2641
5579,2641,2642,3148
5580,3149,3148,2642
5581,3150,3149,2643
5582,2642,2643,3149
5583,2643,2644,3150
5584,3151,3150,2644
5585,3152,3151,2645
5586,2644,2645,3151
5587,3153,3152,2646
5588,3152,2645,2646
5589,2646,2647,3153
5590,3154,3153,2647
5591,2647,2648,3154
5592,3021,3154,2648
5593,3020,2485,3155
5594,2486,3155,2485
5595,3155,2486,2488
5596,2487,2488,2486
5597,3156,3157,2739
5598,2128,2739,3157
5599,2739,2740,3156
5600,3158,3156,2740
5601,2740,2742,3158
5602,2742,3159,3158
5603,2742,3160,3159
5604,3159,3160,3161
5605,2741,3162,2742
5606,3160,2742,3162
5607,2743,3163,2741
5608,3162,2741,3163
5609,2744,3164,2743
5610,3163,2743,3164
5611,2745,3165,2744
5612,3164,2744,3165
5613,2745,2783,3165
5614,3166,3165,2783
5615,2784,2785,3167
5616,3168,3167,2785
5617,2786,3169,2785
5618,3168,2785,3169
5619,2786,2787,3169
5620,3170,3169,2787
5621,2787,2788,3170
5622,3171,3170,2788
5623,3172,3171,2789
5624,2788,2789,3171
5625,3173,3172,2790
5626,2789,2790,3172
5627,3174,3173,2791
5628,3173,2790,2791
5629,2793,3174,2792
5630,2791,2792,3174
5631,3175,3174,3176
5632,2793,3176,3174
5633,3176,2793,3177
5634,2794,3177,2793
5635,3177,2794,3178
5636,2795,3178,2794
5637,3178,2795,3179
5638,2796,3179,2795
5639,3179,2796,3180
5640,3180,2796,2797
5641,3180,2797,3181
5642,2798,3181,2797
5643,3182,3181,2799
5644,3181,2798,2799
5645,3183,3182,2800
5646,2799,2800,3182
5647,3184,3183,2801
5648,3183,2800,2801
5649,3185,3184,2802
5650,2801,2802,3184
5651,2802,2520,3185
5652,3186,3185,2520
5653,3187,3186,2521
5654,2520,2521,3186
5655,2521,2522,3187
5656,3188,3187,2522
5657,2522,2523,3188
5658,3189,3188,2523
5659,2523,2524,3189
5660,3189,2524,3190
5661,2524,3191,3190
5662,3190,3191,3192
5663,3191,2524,3193
5664,2525,3193,2524
5665,3193,2525,3194
5666,3194,2525,2526
5667,3194,2526,3195
5668,3195,2526,2527
5669,3195,2527,3196
5670,2527,2528,3196
5671,3196,2528,2762
5672,2529,2762,2528
5673,2783,2784,3197
5674,3167,3197,2784
5675,3198,3166,3197
5676,2783,3197,3166
5677,2766,2767,2719
5678,2718,2719,2767
5679,3199,3196,2763
5680,2762,2763,3196
5681,3200,3199,2764
5682,2764,3199,2763
5683,3200,2764,3201
5684,2765,3201,2764
5685,3201,2765,2721
5686,2720,2721,2765
5687,2765,2766,2720
5688,2719,2720,2766
5689,3202,3201,2722
5690,2721,2722,3201
5691,3203,3202,2723
5692,3202,2722,2723
5693,3204,3203,2724
5694,2723,2724,3203
5695,2725,3205,2724
5696,3204,2724,3205
5697,2726,3206,2725
5698,3205,2725,3206
5699,2727,3207,2726
5700,3206,2726,3207
5701,2728,3208,2727
5702,3207,2727,3208
5703,3208,2728,3209
5704,2729,3209,2728
5705,2651,3209,2650
5706,2729,2650,3209
5707,3210,3116,3118
5708,3117,3118,3116
5709,3211,3210,3119
5710,3118,3119,3210
5711,3212,3211,3120
5712,3119,3120,3211
5713,3213,3212,3121
5714,3120,3121,3212
5715,3121,3122,3213
5716,3214,3213,3122
5717,3122,3123,3214
5718,3215,3214,3123
5719,3216,3215,3124
5720,3123,3124,3215
5721,3124,3125,3216
5722,3217,3216,3125
5723,3217,3125,3218
5724,3126,3218,3125
5725,3126,3127,3218
5726,3219,3218,3127
5727,3127,3128,3219
5728,3128,3220,3219
5729,3128,3129,3220
5730,3221,3220,3129
5731,3129,3130,3221
5732,3221,3130,3222
5733,3130,3131,3222
5734,3223,3222,3131
5735,3131,3132,3223
5736,3224,3223,3132
5737,3132,3133,3224
5738,3133,3225,3224
5739,3226,3225,3134
5740,3134,3225,3133
5741,3227,3226,3135
5742,3134,3135,3226
5743,3135,3136,3227
5744,3228,3227,3136
5745,3229,3228,3137
5746,3136,3137,3228
5747,3230,3229,3138
5748,3137,3138,3229
5749,3138,3139,3230
5750,3231,3230,3139
5751,3232,3231,3140
5752,3231,3139,3140
5753,3233,3232,3141
5754,3140,3141,3232
5755,3234,3233,3142
5756,3141,3142,3233
5757,3235,3234,3143
5758,3142,3143,3234
5759,3236,3235,3144
5760,3143,3144,3235
5761,3237,3236,3145
5762,3144,3145,3236
5763,3238,3237,3146
5764,3145,3146,3237
5765,3239,3238,3147
5766,3146,3147,3238
5767,3240,3239,3148
5768,3147,3148,3239
5769,3148,3149,3240
5770,3149,3241,3240
5771,3149,3150,3241
5772,3150,3242,3241
5773,3150,3151,3242
5774,3243,3242,3151
5775,3151,3152,3243
5776,3244,3243,3152
5777,3245,3244,3153
5778,3244,3152,3153
5779,3153,3154,3245
5780,3245,3154,3246
5781,3154,3021,3246
5782,3022,3246,3021
5783,3247,3047,2964
5784,3047,2963,2964
5785,3248,3247,2965
5786,2964,2965,3247
5787,3249,3248,3250
5788,2965,3250,3248
5789,2966,3251,2965
5790,3250,2965,3251
5791,2967,3252,2966
5792,3251,2966,3252
5793,2968,3253,2967
5794,3253,3252,2967
5795,2969,3254,2968
5796,3253,2968,3254
5797,3254,2969,3255
5798,2970,3255,2969
5799,3255,2970,3256
5800,2971,3256,2970
5801,3256,2971,3257
5802,2972,3257,2971
5803,2973,3258,2972
5804,2972,3258,3257
5805,3259,3258,2974
5806,3258,2973,2974
5807,3260,3259,2975
5808,2975,3259,2974
5809,3260,2975,2977
5810,2976,2977,2975
5811,3261,3260,2978
5812,2977,2978,3260
5813,3262,3261,3263
5814,2978,3263,3261
5815,3263,2978,3264
5816,2979,3264,2978
5817,3264,2979,3265
5818,3265,2979,2980
5819,2981,3266,2980
5820,3265,2980,3266
5821,2982,3267,2981
5822,3266,2981,3267
5823,2983,3268,2982
5824,3267,2982,3268
5825,2984,3269,2983
5826,3269,3268,2983
5827,3269,2984,3270
5828,2985,3270,2984
5829,3270,2985,2987
5830,2986,2987,2985
5831,3271,3270,2988
5832,2987,2988,3270
5833,2990,3271,2989
5834,2989,3271,2988
5835,3272,2680,2682
5836,2681,2682,2680
5837,3273,3272,2683
5838,2682,2683,3272
5839,3274,3273,2684
5840,2683,2684,3273
5841,3275,3274,2685
5842,2685,3274,2684
5843,2685,2686,3275
5844,3276,3275,2686
5845,2686,2687,3276
5846,2687,3277,3276
5847,2687,2689,3277
5848,3277,2689,3278
5849,2689,3279,3278
5850,3280,3278,3279
5851,2688,3281,2689
5852,3279,2689,3281
5853,2690,3282,2688
5854,3281,2688,3282
5855,2691,3283,2690
5856,3282,2690,3283
5857,2692,3284,2691
5858,2691,3284,3283
5859,2693,3285,2692
5860,3284,2692,3285
5861,2693,2694,3285
5862,3286,3285,2694
5863,3287,3286,2998
5864,2694,2998,3286
5865,2999,3288,2998
5866,3287,2998,3288
5867,3289,3288,3000
5868,2999,3000,3288
5869,3000,3001,3289
5870,3290,3289,3001
5871,3001,3002,3290
5872,3291,3290,3002
5873,3062,3291,3061
5874,3002,3061,3291
5875,3003,3292,3002
5876,3061,3002,3292
5877,3004,3293,3003
5878,3293,3292,3003
5879,3005,3294,3004
5880,3293,3004,3294
5881,3006,3295,3005
5882,3294,3005,3295
5883,3295,3006,3296
5884,3007,3296,3006
5885,3296,3007,3297
5886,3008,3297,3007
5887,3297,3008,3298
5888,3009,3298,3008
5889,3298,3009,3299
5890,3010,3299,3009
5891,3299,3010,3300
5892,3011,3300,3010
5893,3301,3302,3024
5894,3024,3302,3025
5895,3024,3026,3301
5896,3303,3301,3026
5897,3026,3304,3303
5898,3304,3305,3303
5899,3027,3306,3026
5900,3304,3026,3306
5901,3028,3307,3027
5902,3306,3027,3307
5903,3308,3155,2774
5904,2488,2774,3155
5905,3309,3308,2775
5906,2774,2775,3308
5907,2775,2776,3309
5908,2776,3310,3309
5909,2776,2777,3310
5910,3311,3310,2777
5911,3312,3311,2778
5912,2777,2778,3311
5913,3313,3312,2779
5914,2779,3312,2778
5915,3314,3313,2780
5916,2779,2780,3313
5917,2781,3315,2780
5918,3315,3314,2780
5919,2887,3316,2781
5920,3315,2781,3316
5921,2888,3317,2887
5922,3316,2887,3317
5923,3048,3317,2889
5924,2888,2889,3317
5925,2889,2890,3048
5926,3048,2890,2891
5927,3318,3319,3156
5928,3157,3156,3319
5929,3320,3318,3158
5930,3158,3318,3156
5931,3158,3159,3320
5932,3321,3320,3159
5933,3159,3161,3321
5934,3322,3321,3161
5935,3161,3323,3322
5936,3324,3322,3323
5937,3160,3325,3161
5938,3323,3161,3325
5939,3162,3326,3160
5940,3325,3160,3326
5941,3163,3327,3162
5942,3162,3327,3326
5943,3164,3328,3163
5944,3327,3163,3328
5945,3164,3165,3328
5946,3329,3328,3165
5947,3165,3166,3329
5948,3330,3329,3166
5949,3331,3330,3198
5950,3166,3198,3330
5951,3332,3331,3333
5952,3198,3333,3331
5953,3197,3334,3198
5954,3198,3334,3333
5955,3167,3335,3197
5956,3334,3197,3335
5957,3168,3336,3167
5958,3335,3167,3336
5959,3336,3168,3337
5960,3169,3337,3168
5961,3169,3170,3337
5962,3338,3337,3170
5963,3339,3338,3171
5964,3170,3171,3338
5965,3331,3340,3330
5966,3329,3330,3340
5967,3341,3340,3332
5968,3331,3332,3340
5969,3342,3341,3343
5970,3341,3332,3343
5971,3343,3332,3344
5972,3333,3344,3332
5973,3334,3345,3333
5974,3344,3333,3345
5975,3345,3334,3346
5976,3335,3346,3334
5977,3346,3335,3347
5978,3336,3347,3335
5979,3348,3347,3339
5980,3338,3339,3347
5981,3349,3348,3350
5982,3339,3350,3348
5983,3350,3351,3349
5984,3349,3351,3352
5985,3353,3352,3354
5986,3351,3354,3352
5987,3175,3355,3351
5988,3354,3351,3355
5989,3355,3175,3356
5990,3176,3356,3175
5991,3177,3357,3176
5992,3356,3176,3357
5993,3178,3358,3177
5994,3357,3177,3358
5995,3358,3178,3359
5996,3359,3178,3179
5997,3180,3360,3179
5998,3359,3179,3360
5999,3360,3180,3361
6000,3181,3361,3180
6001,3362,3361,3182
6002,3181,3182,3361
6003,3363,3362,3183
6004,3182,3183,3362
6005,3364,3363,3184
6006,3363,3183,3184
6007,3365,3364,3185
6008,3184,3185,3364
6009,3185,3186,3365
6010,3366,3365,3186
6011,3186,3187,3366
6012,3367,3366,3187
6013,3187,3188,3367
6014,3368,3367,3188
6015,3188,3189,3368
6016,3369,3368,3189
6017,3189,3190,3369
6018,3370,3369,3190
6019,3190,3192,3370
6020,3371,3370,3192
6021,3192,3372,3371
6022,3373,3371,3372
6023,3191,3374,3192
6024,3372,3192,3374
6025,3374,3191,3375
6026,3193,3375,3191
6027,3375,3193,3376
6028,3193,3194,3376
6029,3195,3377,3194
6030,3377,3376,3194
6031,3377,3195,3199
6032,3196,3199,3195
6033,2678,2679,3272
6034,2680,3272,2679
6035,2678,3272,3378
6036,3273,3378,3272
6037,3273,3274,3378
6038,3379,3378,3274
6039,3380,3379,3275
6040,3274,3275,3379
6041,3275,3276,3380
6042,3380,3276,3381
6043,3276,3277,3381
6044,3382,3381,3277
6045,3277,3278,3382
6046,3382,3278,3383
6047,3278,3280,3383
6048,3384,3383,3280
6049,3385,3384,3386
6050,3386,3384,3280
6051,3279,3387,3280
6052,3386,3280,3387
6053,3281,3388,3279
6054,3387,3279,3388
6055,3282,3389,3281
6056,3389,3388,3281
6057,3283,3390,3282
6058,3389,3282,3390
6059,3284,3391,3283
6060,3390,3283,3391
6061,3285,3392,3284
6062,3391,3284,3392
6063,3285,3286,3392
6064,3393,3392,3286
6065,3286,3287,3393
6066,3394,3393,3287
6067,3287,3288,3394
6068,3395,3394,3288
6069,3396,3395,3289
6070,3288,3289,3395
6071,3397,3396,3290
6072,3289,3290,3396
6073,3290,3291,3397
6074,3398,3397,3291
6075,3063,3398,3062
6076,3291,3062,3398
6077,2811,3399,2810
6078,3399,2997,2810
6079,3399,2811,2813
6080,2812,2813,2811
6081,3201,3202,3200
6082,3400,3200,3202
6083,3202,3203,3400
6084,3401,3400,3203
6085,3402,3401,3204
6086,3204,3401,3203
6087,3403,3402,3205
6088,3204,3205,3402
6089,3206,3404,3205
6090,3205,3404,3403
6091,3207,3405,3206
6092,3404,3206,3405
6093,3208,3406,3207
6094,3405,3207,3406
6095,3209,3407,3208
6096,3406,3208,3407
6097,2651,3408,3209
6098,3209,3408,3407
6099,2651,2652,3408
6100,3408,2652,3409
6101,2652,2653,3409
6102,3410,3409,2653
6103,3411,3410,2654
6104,2653,2654,3410
6105,3412,3411,2655
6106,2654,2655,3411
6107,3413,3412,2656
6108,2655,2656,3412
6109,3414,3413,2657
6110,2656,2657,3413
6111,3415,3414,2658
6112,2657,2658,3414
6113,3416,3415,2660
6114,2658,2660,3415
6115,3417,3416,3418
6116,2660,3418,3416
6117,2659,3419,2660
6118,3419,3418,2660
6119,3419,2659,3420
6120,2661,3420,2659
6121,2662,3421,2661
6122,3420,2661,3421
6123,2663,3422,2662
6124,3421,2662,3422
6125,2663,2664,3422
6126,3423,3422,2664
6127,2664,2665,3423
6128,3424,3423,2665
6129,2665,2666,3424
6130,3425,3424,2666
6131,3426,3425,2667
6132,2667,3425,2666
6133,3427,3426,2668
6134,2667,2668,3426
6135,2668,2669,3427
6136,3428,3427,2669
6137,2669,2670,3428
6138,3428,2670,3429
6139,3430,3429,2671
6140,2670,2671,3429
6141,3431,3430,2672
6142,2671,2672,3430
6143,2672,2673,3431
6144,3432,3431,2673
6145,2673,2674,3432
6146,3433,3432,2674
6147,2674,3434,3433
6148,3435,3433,3434
6149,2675,3436,2674
6150,3434,2674,3436
6151,3436,2675,3437
6152,2676,3437,2675
6153,2677,3438,2676
6154,3437,2676,3438
6155,2678,3378,2677
6156,3438,2677,3378
6157,3031,3439,3030
6158,3439,3440,3030
6159,3032,3441,3031
6160,3439,3031,3441
6161,3033,3442,3032
6162,3441,3032,3442
6163,3034,3443,3033
6164,3442,3033,3443
6165,3443,3034,3444
6166,3444,3034,3035
6167,3444,3035,3445
6168,3036,3445,3035
6169,3446,3445,3037
6170,3036,3037,3445
6171,3037,3038,3446
6172,3038,3447,3446
6173,3038,3039,3447
6174,3448,3447,3039
6175,3040,3449,3039
6176,3448,3039,3449
6177,3042,3450,3041
6178,3451,3041,3450
6179,3043,3452,3042
6180,3450,3042,3452
6181,3452,3043,3453
6182,3044,3453,3043
6183,3453,3044,3454
6184,3045,3454,3044
6185,3454,3045,3455
6186,3046,3455,3045
6187,3455,3046,3247
6188,3047,3247,3046
6189,3061,3292,3060
6190,3293,3060,3292
6191,3060,3293,3059
6192,3294,3059,3293
6193,2813,3319,3399
6194,3456,3399,3319
6195,3457,3456,3318
6196,3319,3318,3456
6197,3458,3457,3320
6198,3318,3320,3457
6199,3320,3321,3458
6200,3459,3458,3321
6201,3321,3322,3459
6202,3460,3459,3322
6203,3322,3324,3460
6204,3461,3460,3324
6205,3324,3462,3461
6206,3463,3461,3462
6207,3323,3464,3324
6208,3462,3324,3464
6209,3325,3465,3323
6210,3464,3323,3465
6211,3465,3325,3466
6212,3326,3466,3325
6213,3466,3326,3467
6214,3467,3326,3327
6215,3467,3327,3468
6216,3328,3468,3327
6217,3468,3328,3340
6218,3329,3340,3328
6219,3199,3200,3377
6220,3200,3469,3377
6221,3470,3469,3400
6222,3200,3400,3469
6223,3400,3401,3470
6224,3471,3470,3401
6225,3401,3402,3471
6226,3472,3471,3402
6227,3402,3403,3472
6228,3473,3472,3403
6229,3404,3474,3403
6230,3473,3403,3474
6231,3405,3475,3404
6232,3474,3404,3475
6233,3406,3476,3405
6234,3475,3405,3476
6235,3407,3477,3406
6236,3476,3406,3477
6237,3407,3408,3477
6238,3477,3408,3478
6239,3408,3409,3478
6240,3479,3478,3409
6241,3409,3410,3479
6242,3480,3479,3410
6243,3481,3480,3411
6244,3410,3411,3480
6245,3482,3481,3412
6246,3411,3412,3481
6247,3483,3482,3413
6248,3412,3413,3482
6249,3484,3483,3414
6250,3413,3414,3483
6251,3485,3484,3415
6252,3414,3415,3484
6253,3486,3485,3416
6254,3485,3415,3416
6255,3487,3486,3417
6256,3486,3416,3417
6257,3488,3487,3489
6258,3489,3487,3417
6259,3418,3490,3417
6260,3489,3417,3490
6261,3419,3491,3418
6262,3490,3418,3491
6263,3491,3419,3492
6264,3419,3420,3492
6265,3492,3420,3422
6266,3421,3422,3420
6267,3493,3492,3423
6268,3422,3423,3492
6269,3494,3493,3424
6270,3423,3424,3493
6271,3495,3494,3425
6272,3424,3425,3494
6273,3496,3495,3426
6274,3425,3426,3495
6275,3497,3496,3427
6276,3496,3426,3427
6277,3498,3497,3428
6278,3427,3428,3497
6279,3498,3428,3430
6280,3429,3430,3428
6281,3499,3498,3431
6282,3430,3431,3498
6283,3431,3432,3499
6284,3500,3499,3432
6285,3432,3433,3500
6286,3433,3501,3500
6287,3433,3435,3501
6288,3502,3501,3435
6289,3435,3503,3502
6290,3504,3502,3503
6291,3503,3435,3505
6292,3505,3435,3434
6293,3505,3434,3506
6294,3436,3506,3434
6295,3506,3436,3507
6296,3437,3507,3436
6297,3438,3508,3437
6298,3507,3437,3508
6299,3378,3379,3438
6300,3508,3438,3379
6301,3013,3014,3509
6302,3510,3509,3014
6303,3014,3015,3510
6304,3511,3510,3015
6305,3015,3017,3511
6306,3017,3512,3511
6307,3017,3513,3512
6308,3513,3514,3512
6309,3016,3515,3017
6310,3513,3017,3515
6311,3309,3515,3018
6312,3016,3018,3515
6313,3309,3018,3308
6314,3019,3308,3018
6315,3019,3020,3308
6316,3308,3020,3155
6317,3516,3455,3248
6318,3248,3455,3247
6319,3248,3249,3516
6320,3516,3249,3517
6321,3518,3517,3519
6322,3249,3519,3517
6323,3250,3520,3249
6324,3519,3249,3520
6325,3251,3521,3250
6326,3520,3250,3521
6327,3252,3522,3251
6328,3521,3251,3522
6329,3522,3252,3254
6330,3253,3254,3252
6331,3522,3254,3523
6332,3255,3523,3254
6333,3523,3255,3524
6334,3256,3524,3255
6335,3257,3525,3256
6336,3524,3256,3525
6337,3258,3526,3257
6338,3525,3257,3526
6339,3259,3527,3258
6340,3526,3258,3527
6341,3260,3528,3259
6342,3527,3259,3528
6343,3260,3261,3528
6344,3261,3529,3528
6345,3261,3262,3529
6346,3530,3529,3262
6347,3262,3531,3530
6348,3532,3530,3531
6349,3531,3262,3533
6350,3533,3262,3263
6351,3533,3263,3534
6352,3264,3534,3263
6353,3265,3535,3264
6354,3264,3535,3534
6355,3535,3265,3536
6356,3266,3536,3265
6357,3536,3266,3537
6358,3267,3537,3266
6359,3268,3538,3267
6360,3537,3267,3538
6361,3269,3539,3268
6362,3268,3539,3538
6363,3270,3540,3269
6364,3269,3540,3539
6365,3270,3271,3540
6366,3541,3540,3271
6367,2991,3541,2990
6368,3271,2990,3541
6369,3542,3468,3341
6370,3340,3341,3468
6371,3543,3542,3342
6372,3341,3342,3542
6373,3544,3543,3545
6374,3342,3545,3543
6375,3545,3342,3546
6376,3343,3546,3342
6377,3546,3343,3547
6378,3344,3547,3343
6379,3547,3344,3548
6380,3345,3548,3344
6381,3548,3345,3549
6382,3346,3549,3345
6383,3549,3346,3348
6384,3347,3348,3346
6385,3349,3352,3550
6386,3551,3550,3352
6387,3552,3551,3353
6388,3551,3352,3353
6389,3353,3553,3552
6390,3552,3553,3554
6391,3354,3555,3353
6392,3553,3353,3555
6393,3355,3556,3354
6394,3555,3354,3556
6395,3556,3355,3557
6396,3356,3557,3355
6397,3357,3558,3356
6398,3557,3356,3558
6399,3558,3357,3559
6400,3358,3559,3357
6401,3559,3358,3560
6402,3359,3560,3358
6403,3560,3359,3561
6404,3360,3561,3359
6405,3562,3561,3361
6406,3360,3361,3561
6407,3563,3562,3362
6408,3361,3362,3562
6409,3564,3563,3363
6410,3362,3363,3563
6411,3565,3564,3364
6412,3364,3564,3363
6413,3364,3365,3565
6414,3566,3565,3365
6415,3365,3366,3566
6416,3567,3566,3366
6417,3568,3567,3367
6418,3366,3367,3567
6419,3569,3568,3368
6420,3367,3368,3568
6421,3368,3369,3569
6422,3570,3569,3369
6423,3369,3370,3570
6424,3571,3570,3370
6425,3370,3371,3571
6426,3572,3571,3371
6427,3371,3373,3572
6428,3573,3572,3373
6429,3373,3574,3573
6430,3575,3573,3574
6431,3372,3576,3373
6432,3373,3576,3574
6433,3374,3577,3372
6434,3372,3577,3576
6435,3375,3578,3374
6436,3577,3374,3578
6437,3376,3579,3375
6438,3579,3578,3375
6439,3377,3469,3376
6440,3579,3376,3469
6441,3580,3115,3210
6442,3116,3210,3115
6443,3581,3580,3211
6444,3210,3211,3580
6445,3582,3581,3212
6446,3581,3211,3212
6447,3583,3582,3213
6448,3213,3582,3212
6449,3584,3583,3214
6450,3213,3214,3583
6451,3214,3215,3584
6452,3585,3584,3215
6453,3215,3216,3585
6454,3586,3585,3216
6455,3216,3217,3586
6456,3587,3586,3217
6457,3218,3219,3588
6458,3589,3588,3219
6459,3219,3220,3589
6460,3590,3589,3220
6461,3220,3221,3590
6462,3591,3590,3221
6463,3221,3222,3591
6464,3592,3591,3222
6465,3222,3223,3592
6466,3593,3592,3223
6467,3223,3224,3593
6468,3593,3224,3594
6469,3224,3225,3594
6470,3595,3594,3225
6471,3225,3226,3595
6472,3226,3596,3595
6473,3597,3596,3227
6474,3226,3227,3596
6475,3598,3597,3228
6476,3227,3228,3597
6477,3599,3598,3229
6478,3228,3229,3598
6479,3229,3230,3599
6480,3600,3599,3230
6481,3601,3600,3231
6482,3230,3231,3600
6483,3602,3601,3232
6484,3231,3232,3601
6485,3603,3602,3233
6486,3232,3233,3602
6487,3604,3603,3234
6488,3233,3234,3603
6489,3605,3604,3235
6490,3234,3235,3604
6491,3606,3605,3236
6492,3235,3236,3605
6493,3607,3606,3237
6494,3237,3606,3236
6495,3608,3607,3238
6496,3237,3238,3607
6497,3609,3608,3239
6498,3238,3239,3608
6499,3610,3609,3240
6500,3609,3239,3240
6501,3241,3611,3240
6502,3610,3240,3611
6503,3241,3242,3611
6504,3612,3611,3242
6505,3242,3243,3612
6506,3613,3612,3243
6507,3614,3613,3244
6508,3243,3244,3613
6509,3615,3614,3245
6510,3244,3245,3614
6511,3245,3246,3615
6512,3616,3615,3246
6513,3246,3022,3616
6514,3616,3022,3023
6515,3295,3617,3294
6516,3617,3059,3294
6517,3296,3618,3295
6518,3295,3618,3617
6519,3618,3296,3619
6520,3296,3297,3619
6521,3619,3297,3620
6522,3620,3297,3298
6523,3620,3298,3621
6524,3298,3299,3621
6525,3621,3299,3622
6526,3300,3622,3299
6527,3622,3300,3509
6528,3509,3300,3013
6529,3300,3011,3013
6530,3012,3013,3011
6531,3302,3301,3616
6532,3615,3616,3301
6533,3301,3303,3615
6534,3614,3615,3303
6535,3303,3305,3614
6536,3613,3614,3305
6537,3309,3310,3515
6538,3623,3515,3310
6539,3310,3311,3623
6540,3623,3311,3624
6541,3625,3624,3312
6542,3311,3312,3624
6543,3313,3626,3312
6544,3625,3312,3626
6545,3314,3627,3313
6546,3626,3313,3627
6547,3315,3628,3314
6548,3627,3314,3628
6549,3316,3629,3315
6550,3628,3315,3629
6551,3317,3630,3316
6552,3629,3316,3630
6553,3048,3049,3317
6554,3630,3317,3049
6555,3305,3631,3613
6556,3631,3612,3613
6557,3304,3632,3305
6558,3631,3305,3632
6559,3306,3633,3304
6560,3632,3304,3633
6561,3307,3634,3306
6562,3633,3306,3634
6563,3634,3307,3440
6564,3030,3440,3307
6565,3635,3040,3451
6566,3451,3040,3041
6567,3040,3635,3449
6568,3636,3449,3635
6569,3307,3028,3030
6570,3029,3030,3028
6571,3058,3059,3637
6572,3617,3637,3059
6573,3637,3617,3638
6574,3618,3638,3617
6575,3619,3639,3618
6576,3638,3618,3639
6577,3639,3619,3640
6578,3620,3640,3619
6579,3640,3620,3641
6580,3621,3641,3620
6581,3641,3621,3642
6582,3642,3621,3622
6583,3642,3622,3643
6584,3509,3643,3622
6585,3643,3509,3644
6586,3510,3644,3509
6587,3511,3645,3510
6588,3644,3510,3645
6589,3511,3512,3645
6590,3646,3645,3512
6591,3512,3514,3646
6592,3647,3646,3514
6593,3514,3648,3647
6594,3649,3647,3648
6595,3513,3650,3514
6596,3648,3514,3650
6597,3515,3623,3513
6598,3650,3513,3623
6599,3631,3610,3612
6600,3611,3612,3610
6601,3632,3651,3631
6602,3631,3651,3610
6603,3633,3652,3632
6604,3651,3632,3652
6605,3652,3633,3653
6606,3634,3653,3633
6607,3653,3634,3654
6608,3440,3654,3634
6609,3654,3440,3655
6610,3439,3655,3440
6611,3441,3656,3439
6612,3655,3439,3656
6613,3442,3657,3441
6614,3656,3441,3657
6615,3443,3658,3442
6616,3657,3442,3658
6617,3444,3659,3443
6618,3658,3443,3659
6619,3659,3444,3660
6620,3444,3445,3660
6621,3660,3445,3661
6622,3446,3661,3445
6623,3661,3446,3662
6624,3662,3446,3447
6625,3662,3447,3663
6626,3448,3663,3447
6627,3449,3664,3448
6628,3663,3448,3664
6629,3449,3636,3664
6630,3665,3664,3636
6631,3666,3665,3667
6632,3665,3636,3667
6633,3667,3636,3668
6634,3635,3668,3636
6635,3668,3635,3669
6636,3451,3669,3635
6637,3450,3670,3451
6638,3669,3451,3670
6639,3452,3671,3450
6640,3670,3450,3671
6641,3453,3672,3452
6642,3671,3452,3672
6643,3672,3453,3673
6644,3454,3673,3453
6645,3455,3516,3454
6646,3673,3454,3516
6647,2992,3674,2991
6648,3541,2991,3674
6649,2993,3675,2992
6650,3674,2992,3675
6651,2995,3676,2993
6652,3675,2993,3676
6653,3457,3458,2994
6654,2995,2994,3458
6655,3456,3457,2996
6656,2994,2996,3457
6657,3399,3456,2997
6658,2996,2997,3456
6659,3677,3663,3665
6660,3664,3665,3663
6661,3677,3665,3678
6662,3665,3666,3678
6663,3678,3666,3679
6664,3679,3666,3680
6665,3681,3680,3667
6666,3666,3667,3680
6667,3667,3668,3681
6668,3668,3682,3681
6669,3668,3669,3682
6670,3670,3682,3669
6671,3063,3064,3398
6672,3064,3397,3398
6673,3397,3064,3683
6674,3065,3683,3064
6675,3066,3684,3065
6676,3683,3065,3684
6677,3684,3066,3685
6678,3067,3685,3066
6679,3068,3686,3067
6680,3685,3067,3686
6681,3686,3068,3687
6682,3069,3687,3068
6683,3687,3069,3688
6684,3070,3688,3069
6685,3688,3070,3689
6686,3071,3689,3070
6687,3072,3690,3071
6688,3689,3071,3690
6689,3073,3691,3072
6690,3690,3072,3691
6691,3074,3692,3073
6692,3691,3073,3692
6693,3075,3693,3074
6694,3074,3693,3692
6695,3693,3075,3694
6696,3076,3694,3075
6697,3694,3076,3695
6698,3077,3695,3076
6699,3695,3077,3696
6700,3077,3078,3696
6701,3696,3078,3697
6702,3079,3697,3078
6703,3697,3079,3698
6704,3080,3698,3079
6705,3698,3080,3699
6706,3081,3699,3080
6707,3699,3081,3700
6708,3082,3700,3081
6709,3700,3082,3701
6710,3083,3701,3082
6711,3701,3083,3702
6712,3084,3702,3083
6713,3702,3084,3703
6714,3085,3703,3084
6715,3703,3085,3704
6716,3086,3704,3085
6717,3704,3086,3705
6718,3087,3705,3086
6719,3705,3087,3706
6720,3088,3706,3087
6721,3089,3707,3088
6722,3707,3706,3088
6723,3707,3089,3708
6724,3090,3708,3089
6725,3091,3709,3090
6726,3708,3090,3709
6727,3092,3710,3091
6728,3709,3091,3710
6729,3093,3711,3092
6730,3092,3711,3710
6731,3094,3712,3093
6732,3711,3093,3712
6733,3094,3095,3712
6734,3713,3712,3095
6735,3714,3715,3716
6736,2962,3716,3715
6737,3716,2962,3717
6738,2961,3717,2962
6739,3718,3467,3542
6740,3468,3542,3467
6741,3719,3718,3543
6742,3542,3543,3718
6743,3720,3719,3544
6744,3543,3544,3719
6745,3721,3722,3544
6746,3720,3544,3722
6747,3721,3544,3723
6748,3545,3723,3544
6749,3546,3724,3545
6750,3545,3724,3723
6751,3547,3725,3546
6752,3546,3725,3724
6753,3548,3726,3547
6754,3725,3547,3726
6755,3549,3727,3548
6756,3726,3548,3727
6757,3348,3728,3549
6758,3727,3549,3728
6759,3729,3730,3552
6760,3551,3552,3730
6761,3731,3729,3554
6762,3552,3554,3729
6763,3554,3732,3731
6764,3733,3731,3732
6765,3553,3734,3554
6766,3732,3554,3734
6767,3555,3735,3553
6768,3734,3553,3735
6769,3556,3736,3555
6770,3555,3736,3735
6771,3557,3737,3556
6772,3736,3556,3737
6773,3737,3557,3738
6774,3558,3738,3557
6775,3738,3558,3739
6776,3559,3739,3558
6777,3739,3559,3740
6778,3740,3559,3560
6779,3561,3741,3560
6780,3740,3560,3741
6781,3742,3741,3562
6782,3561,3562,3741
6783,3743,3742,3563
6784,3563,3742,3562
6785,3743,3563,3744
6786,3564,3744,3563
6787,3564,3565,3744
6788,3745,3744,3565
6789,3746,3745,3566
6790,3565,3566,3745
6791,3747,3746,3567
6792,3566,3567,3746
6793,3567,3568,3747
6794,3748,3747,3568
6795,3568,3569,3748
6796,3749,3748,3569
6797,3569,3570,3749
6798,3750,3749,3570
6799,3751,3750,3571
6800,3570,3571,3750
6801,3751,3571,3752
6802,3572,3752,3571
6803,3752,3572,3575
6804,3573,3575,3572
6805,3753,3752,3754
6806,3752,3575,3754
6807,3754,3575,3755
6808,3574,3755,3575
6809,3576,3756,3574
6810,3574,3756,3755
6811,3577,3757,3576
6812,3756,3576,3757
6813,3578,3758,3577
6814,3757,3577,3758
6815,3579,3759,3578
6816,3758,3578,3759
6817,3469,3470,3579
6818,3579,3470,3759
6819,3625,3650,3624
6820,3623,3624,3650
6821,3057,3058,3760
6822,3637,3760,3058
6823,3638,3761,3637
6824,3760,3637,3761
6825,3639,3762,3638
6826,3638,3762,3761
6827,3762,3639,3763
6828,3640,3763,3639
6829,3763,3640,3764
6830,3641,3764,3640
6831,3764,3641,3765
6832,3642,3765,3641
6833,3765,3642,3766
6834,3643,3766,3642
6835,3766,3643,3767
6836,3644,3767,3643
6837,3767,3644,3646
6838,3645,3646,3644
6839,3768,3767,3647
6840,3646,3647,3767
6841,3649,3769,3647
6842,3768,3647,3769
6843,3649,3627,3769
6844,3628,3769,3627
6845,3648,3626,3649
6846,3627,3649,3626
6847,3626,3648,3625
6848,3650,3625,3648
6849,3770,3630,3050
6850,3049,3050,3630
6851,3766,3770,3051
6852,3770,3050,3051
6853,3766,3051,3765
6854,3052,3765,3051
6855,3765,3052,3764
6856,3053,3764,3052
6857,3054,3763,3053
6858,3764,3053,3763
6859,3055,3762,3054
6860,3763,3054,3762
6861,3507,3508,3380
6862,3379,3380,3508
6863,3507,3380,3771
6864,3771,3380,3381
6865,3381,3382,3771
6866,3382,3772,3771
6867,3382,3383,3772
6868,3773,3772,3383
6869,3383,3384,3773
6870,3774,3773,3384
6871,3384,3385,3774
6872,3775,3774,3385
6873,3385,3776,3775
6874,3777,3775,3776
6875,3776,3385,3778
6876,3778,3385,3386
6877,3778,3386,3779
6878,3387,3779,3386
6879,3779,3387,3780
6880,3388,3780,3387
6881,3780,3388,3781
6882,3389,3781,3388
6883,3781,3389,3782
6884,3390,3782,3389
6885,3782,3390,3783
6886,3391,3783,3390
6887,3783,3391,3784
6888,3392,3784,3391
6889,3784,3392,3394
6890,3393,3394,3392
6891,3785,3784,3395
6892,3395,3784,3394
6893,3395,3396,3785
6894,3786,3785,3396
6895,3683,3786,3397
6896,3396,3397,3786
6897,3218,3588,3217
6898,3217,3588,3787
6899,3788,3587,3787
6900,3787,3587,3217
6901,3458,3459,2995
6902,3789,2995,3459
6903,3459,3460,3789
6904,3790,3789,3460
6905,3460,3461,3790
6906,3791,3790,3461
6907,3461,3463,3791
6908,3792,3791,3463
6909,3463,3793,3792
6910,3794,3792,3793
6911,3462,3795,3463
6912,3793,3463,3795
6913,3464,3796,3462
6914,3795,3462,3796
6915,3796,3464,3797
6916,3465,3797,3464
6917,3797,3465,3798
6918,3466,3798,3465
6919,3798,3466,3718
6920,3467,3718,3466
6921,3799,3673,3517
6922,3516,3517,3673
6923,3800,3799,3518
6924,3517,3518,3799
6925,3801,3800,3802
6926,3518,3802,3800
6927,3802,3518,3803
6928,3519,3803,3518
6929,3803,3519,3804
6930,3520,3804,3519
6931,3804,3520,3805
6932,3520,3521,3805
6933,3805,3521,3806
6934,3522,3806,3521
6935,3523,3807,3522
6936,3522,3807,3806
6937,3524,3808,3523
6938,3807,3523,3808
6939,3525,3809,3524
6940,3808,3524,3809
6941,3526,3810,3525
6942,3525,3810,3809
6943,3526,3527,3810
6944,3811,3810,3527
6945,3527,3528,3811
6946,3812,3811,3528
6947,3528,3529,3812
6948,3812,3529,3813
6949,3529,3530,3813
6950,3814,3813,3530
6951,3530,3532,3814
6952,3814,3532,3815
6953,3532,3816,3815
6954,3815,3816,3817
6955,3531,3818,3532
6956,3816,3532,3818
6957,3533,3819,3531
6958,3531,3819,3818
6959,3534,3820,3533
6960,3819,3533,3820
6961,3821,3820,3535
6962,3534,3535,3820
6963,3821,3535,3822
6964,3536,3822,3535
6965,3822,3536,3823
6966,3537,3823,3536
6967,3824,3825,3540
6968,3539,3540,3825
6969,3674,3824,3541
6970,3540,3541,3824
6971,3826,3114,3580
6972,3115,3580,3114
6973,3827,3826,3581
6974,3580,3581,3826
6975,3828,3827,3582
6976,3581,3582,3827
6977,3829,3828,3583
6978,3582,3583,3828
6979,3830,3829,3584
6980,3583,3584,3829
6981,3584,3585,3830
6982,3831,3830,3585
6983,3585,3586,3831
6984,3832,3831,3586
6985,3586,3587,3832
6986,3833,3832,3587
6987,3834,3833,3788
6988,3587,3788,3833
6989,3788,3835,3834
6990,3835,3836,3834
6991,3787,3837,3788
6992,3835,3788,3837
6993,3588,3838,3787
6994,3787,3838,3837
6995,3588,3589,3838
6996,3839,3838,3589
6997,3589,3590,3839
6998,3590,3840,3839
6999,3590,3591,3840
7000,3840,3591,3841
7001,3591,3592,3841
7002,3842,3841,3592
7003,3592,3593,3842
7004,3842,3593,3843
7005,3593,3594,3843
7006,3844,3843,3594
7007,3594,3595,3844
7008,3845,3844,3595
7009,3595,3596,3845
7010,3846,3845,3596
7011,3596,3597,3846
7012,3847,3846,3597
7013,3848,3847,3598
7014,3597,3598,3847
7015,3849,3848,3599
7016,3599,3848,3598
7017,3850,3849,3600
7018,3599,3600,3849
7019,3851,3850,3601
7020,3600,3601,3850
7021,3852,3851,3602
7022,3851,3601,3602
7023,3853,3852,3603
7024,3602,3603,3852
7025,3854,3853,3604
7026,3603,3604,3853
7027,3855,3854,3605
7028,3604,3605,3854
7029,3856,3855,3606
7030,3605,3606,3855
7031,3606,3607,3856
7032,3857,3856,3607
7033,3607,3608,3857
7034,3608,3858,3857
7035,3608,3609,3858
7036,3859,3858,3609
7037,3609,3610,3859
7038,3651,3859,3610
7039,3859,3651,3860
7040,3652,3860,3651
7041,3860,3652,3861
7042,3653,3861,3652
7043,3861,3653,3862
7044,3654,3862,3653
7045,3862,3654,3863
7046,3655,3863,3654
7047,3656,3864,3655
7048,3863,3655,3864
7049,3657,3865,3656
7050,3864,3656,3865
7051,3658,3866,3657
7052,3865,3657,3866
7053,3866,3658,3867
7054,3659,3867,3658
7055,3867,3659,3868
7056,3660,3868,3659
7057,3868,3660,3869
7058,3661,3869,3660
7059,3869,3661,3870
7060,3662,3870,3661
7061,3870,3662,3677
7062,3663,3677,3662
7063,3682,3670,3871
7064,3871,3670,3671
7065,3672,3872,3671
7066,3871,3671,3872
7067,3673,3799,3672
7068,3872,3672,3799
7069,3717,3098,3873
7070,3097,3873,3098
7071,3873,3097,3874
7072,3874,3097,3099
7073,3874,3099,3875
7074,3100,3875,3099
7075,3101,3876,3100
7076,3875,3100,3876
7077,3102,3877,3101
7078,3876,3101,3877
7079,3877,3102,3878
7080,3103,3878,3102
7081,3878,3103,3879
7082,3104,3879,3103
7083,3105,3880,3104
7084,3104,3880,3879
7085,3881,3880,3106
7086,3106,3880,3105
7087,3882,3881,3107
7088,3106,3107,3881
7089,3883,3882,3108
7090,3107,3108,3882
7091,3108,3109,3883
7092,3884,3883,3109
7093,3109,3110,3884
7094,3885,3884,3110
7095,3111,3112,3886
7096,3887,3886,3112
7097,3112,3113,3887
7098,3888,3887,3113
7099,3114,3889,3113
7100,3888,3113,3889
7101,3890,3889,3826
7102,3114,3826,3889
7103,3891,3890,3827
7104,3826,3827,3890
7105,3892,3891,3828
7106,3827,3828,3891
7107,3893,3892,3829
7108,3828,3829,3892
7109,3894,3893,3830
7110,3829,3830,3893
7111,3895,3894,3831
7112,3830,3831,3894
7113,3896,3895,3832
7114,3831,3832,3895
7115,3896,3832,3834
7116,3833,3834,3832
7117,3111,3886,3110
7118,3897,3110,3886
7119,3898,3885,3897
7120,3110,3897,3885
7121,3629,3768,3628
7122,3769,3628,3768
7123,3630,3770,3629
7124,3768,3629,3770
7125,3675,3899,3674
7126,3824,3674,3899
7127,3676,3900,3675
7128,3899,3675,3900
7129,3470,3471,3759
7130,3901,3759,3471
7131,3471,3472,3901
7132,3902,3901,3472
7133,3472,3473,3902
7134,3902,3473,3903
7135,3473,3474,3903
7136,3904,3903,3474
7137,3475,3905,3474
7138,3904,3474,3905
7139,3476,3906,3475
7140,3905,3475,3906
7141,3476,3477,3906
7142,3907,3906,3477
7143,3477,3478,3907
7144,3478,3908,3907
7145,3909,3908,3479
7146,3478,3479,3908
7147,3909,3479,3481
7148,3480,3481,3479
7149,3910,3909,3482
7150,3481,3482,3909
7151,3911,3910,3483
7152,3483,3910,3482
7153,3912,3911,3484
7154,3483,3484,3911
7155,3913,3912,3485
7156,3484,3485,3912
7157,3914,3913,3486
7158,3485,3486,3913
7159,3915,3914,3487
7160,3487,3914,3486
7161,3916,3915,3488
7162,3487,3488,3915
7163,3917,3916,3918
7164,3488,3918,3916
7165,3489,3919,3488
7166,3918,3488,3919
7167,3920,3493,3921
7168,3493,3494,3921
7169,3922,3921,3495
7170,3494,3495,3921
7171,3495,3496,3922
7172,3923,3922,3496
7173,3496,3497,3923
7174,3924,3923,3497
7175,3497,3498,3924
7176,3925,3924,3498
7177,3926,3925,3499
7178,3498,3499,3925
7179,3499,3500,3926
7180,3927,3926,3500
7181,3500,3501,3927
7182,3927,3501,3928
7183,3501,3502,3928
7184,3929,3928,3502
7185,3502,3504,3929
7186,3929,3504,3930
7187,3504,3931,3930
7188,3930,3931,3932
7189,3503,3933,3504
7190,3931,3504,3933
7191,3505,3934,3503
7192,3503,3934,3933
7193,3506,3935,3505
7194,3934,3505,3935
7195,3507,3771,3506
7196,3935,3506,3771
7197,3936,3896,3836
7198,3834,3836,3896
7199,3836,3937,3936
7200,3938,3936,3937
7201,3835,3939,3836
7202,3937,3836,3939
7203,3837,3940,3835
7204,3939,3835,3940
7205,3837,3838,3940
7206,3941,3940,3838
7207,3838,3839,3941
7208,3942,3941,3839
7209,3943,3942,3840
7210,3942,3839,3840
7211,3944,3943,3841
7212,3840,3841,3943
7213,3945,3944,3842
7214,3944,3841,3842
7215,3946,3945,3843
7216,3842,3843,3945
7217,3843,3844,3946
7218,3947,3946,3844
7219,3844,3845,3947
7220,3948,3947,3845
7221,3845,3846,3948
7222,3949,3948,3846
7223,3846,3847,3949
7224,3847,3950,3949
7225,3847,3848,3950
7226,3951,3950,3848
7227,3952,3951,3849
7228,3848,3849,3951
7229,3953,3952,3850
7230,3849,3850,3952
7231,3954,3953,3851
7232,3850,3851,3953
7233,3955,3954,3852
7234,3954,3851,3852
7235,3956,3955,3853
7236,3852,3853,3955
7237,3957,3956,3854
7238,3853,3854,3956
7239,3958,3957,3855
7240,3854,3855,3957
7241,3855,3856,3958
7242,3959,3958,3856
7243,3856,3857,3959
7244,3960,3959,3857
7245,3857,3858,3960
7246,3961,3960,3858
7247,3858,3859,3961
7248,3859,3860,3961
7249,3770,3766,3768
7250,3767,3768,3766
7251,3962,3798,3719
7252,3718,3719,3798
7253,3963,3962,3720
7254,3719,3720,3962
7255,3722,3964,3720
7256,3963,3720,3964
7257,3965,3966,3722
7258,3964,3722,3966
7259,3967,3965,3721
7260,3722,3721,3965
7261,3721,3723,3967
7262,3968,3967,3723
7263,3968,3723,3969
7264,3969,3723,3724
7265,3969,3724,3970
7266,3725,3970,3724
7267,3726,3971,3725
7268,3725,3971,3970
7269,3727,3972,3726
7270,3972,3971,3726
7271,3728,3973,3727
7272,3972,3727,3973
7273,3974,3975,3729
7274,3730,3729,3975
7275,3729,3731,3974
7276,3976,3974,3731
7277,3731,3733,3976
7278,3977,3976,3733
7279,3733,3978,3977
7280,3979,3977,3978
7281,3732,3980,3733
7282,3978,3733,3980
7283,3734,3981,3732
7284,3980,3732,3981
7285,3735,3982,3734
7286,3981,3734,3982
7287,3736,3983,3735
7288,3982,3735,3983
7289,3983,3736,3984
7290,3737,3984,3736
7291,3984,3737,3985
7292,3738,3985,3737
7293,3985,3738,3986
7294,3739,3986,3738
7295,3986,3739,3987
7296,3987,3739,3740
7297,3988,3987,3741
7298,3740,3741,3987
7299,3989,3988,3742
7300,3741,3742,3988
7301,3989,3742,3990
7302,3743,3990,3742
7303,3990,3743,3991
7304,3744,3991,3743
7305,3744,3745,3991
7306,3992,3991,3745
7307,3745,3746,3992
7308,3993,3992,3746
7309,3994,3993,3747
7310,3746,3747,3993
7311,3747,3748,3994
7312,3995,3994,3748
7313,3748,3749,3995
7314,3749,3996,3995
7315,3786,3683,3997
7316,3684,3997,3683
7317,3685,3998,3684
7318,3997,3684,3998
7319,3998,3685,3999
7320,3686,3999,3685
7321,3999,3686,4000
7322,3687,4000,3686
7323,4000,3687,4001
7324,3688,4001,3687
7325,4001,3688,4002
7326,3689,4002,3688
7327,3690,4003,3689
7328,4002,3689,4003
7329,3691,4004,3690
7330,4003,3690,4004
7331,3692,4005,3691
7332,4004,3691,4005
7333,3693,4006,3692
7334,4005,3692,4006
7335,4006,3693,4007
7336,3694,4007,3693
7337,4007,3694,4008
7338,3695,4008,3694
7339,4008,3695,4009
7340,3696,4009,3695
7341,4009,3696,4010
7342,4010,3696,3697
7343,4010,3697,4011
7344,3698,4011,3697
7345,4011,3698,4012
7346,3699,4012,3698
7347,4012,3699,4013
7348,4013,3699,3700
7349,4013,3700,4014
7350,3701,4014,3700
7351,4014,3701,4015
7352,3702,4015,3701
7353,4015,3702,4016
7354,3703,4016,3702
7355,4016,3703,4017
7356,3704,4017,3703
7357,4017,3704,4018
7358,3705,4018,3704
7359,4018,3705,4019
7360,3706,4019,3705
7361,4019,3706,4020
7362,3707,4020,3706
7363,4020,3707,4021
7364,3708,4021,3707
7365,4021,3708,4022
7366,3709,4022,3708
7367,4022,3709,4023
7368,4023,3709,3710
7369,4023,3710,4024
7370,4024,3710,3711
7371,4024,3711,4025
7372,3712,4025,3711
7373,4025,3712,4026
7374,3713,4026,3712
7375,3715,3714,4027
7376,4028,4027,3714
7377,3997,4029,3786
7378,3786,4029,3785
7379,4029,3997,4030
7380,3998,4030,3997
7381,3999,4031,3998
7382,4030,3998,4031
7383,4031,3999,4032
7384,4000,4032,3999
7385,4032,4000,4033
7386,4001,4033,4000
7387,4033,4001,4034
7388,4034,4001,4002
7389,4003,4035,4002
7390,4034,4002,4035
7391,4004,4036,4003
7392,4035,4003,4036
7393,4005,4037,4004
7394,4036,4004,4037
7395,4037,4005,4038
7396,4006,4038,4005
7397,4038,4006,4039
7398,4007,4039,4006
7399,4039,4007,4040
7400,4008,4040,4007
7401,4040,4008,4041
7402,4009,4041,4008
7403,4041,4009,4042
7404,4010,4042,4009
7405,4042,4010,4043
7406,4043,4010,4011
7407,4043,4011,4044
7408,4012,4044,4011
7409,4044,4012,4045
7410,4045,4012,4013
7411,4045,4013,4046
7412,4014,4046,4013
7413,4046,4014,4047
7414,4047,4014,4015
7415,4047,4015,4048
7416,4016,4048,4015
7417,4048,4016,4049
7418,4017,4049,4016
7419,4049,4017,4050
7420,4018,4050,4017
7421,4050,4018,4051
7422,4019,4051,4018
7423,4051,4019,4052
7424,4020,4052,4019
7425,4052,4020,4053
7426,4021,4053,4020
7427,4053,4021,4054
7428,4022,4054,4021
7429,4054,4022,4055
7430,4023,4055,4022
7431,4055,4023,4056
7432,4024,4056,4023
7433,4056,4024,4057
7434,4025,4057,4024
7435,4057,4025,4058
7436,4026,4058,4025
7437,4058,4026,4028
7438,4027,4028,4026
7439,4059,4058,4060
7440,4028,4060,4058
7441,3714,4061,4028
7442,4060,4028,4061
7443,3716,4062,3714
7444,4061,3714,4062
7445,4062,3716,4063
7446,3717,4063,3716
7447,3717,3873,4063
7448,4064,4063,3873
7449,4064,3873,4065
7450,3874,4065,3873
7451,4065,3874,4066
7452,3875,4066,3874
7453,4066,3875,4067
7454,4067,3875,3876
7455,4067,3876,4068
7456,3877,4068,3876
7457,3878,4069,3877
7458,4068,3877,4069
7459,4069,3878,4070
7460,3879,4070,3878
7461,4070,3879,4071
7462,3880,4071,3879
7463,3881,4072,3880
7464,4071,3880,4072
7465,3881,3882,4072
7466,4073,4072,3882
7467,3883,4074,3882
7468,4073,3882,4074
7469,3883,3884,4074
7470,4075,4074,3884
7471,3884,3885,4075
7472,4076,4075,3885
7473,4077,4076,3898
7474,3885,3898,4076
7475,4078,4077,4079
7476,4079,4077,3898
7477,3897,4080,3898
7478,4079,3898,4080
7479,3886,4081,3897
7480,4080,3897,4081
7481,3887,4082,3886
7482,4081,3886,4082
7483,3887,3888,4082
7484,4083,4082,3888
7485,3888,3889,4083
7486,4084,4083,3889
7487,3889,3890,4084
7488,4084,3890,4085
7489,4086,4085,3891
7490,3890,3891,4085
7491,4087,4086,3892
7492,3891,3892,4086
7493,4088,4087,3893
7494,3892,3893,4087
7495,4089,4088,3894
7496,3893,3894,4088
7497,4090,4089,3895
7498,4089,3894,3895
7499,3936,4090,3896
7500,3895,3896,4090
7501,3899,4091,3824
7502,3825,3824,4091
7503,3900,4092,3899
7504,4091,3899,4092
7505,4093,4094,3792
7506,4094,3791,3792
7507,3790,3791,4095
7508,4095,3791,4094
7509,2995,3789,3676
7510,4096,3676,3789
7511,3789,3790,4096
7512,4095,4096,3790
7513,4097,3872,3800
7514,3799,3800,3872
7515,4098,4097,3801
7516,4097,3800,3801
7517,4099,4098,4100
7518,4098,3801,4100
7519,4100,3801,4101
7520,4101,3801,3802
7521,4101,3802,4102
7522,3802,3803,4102
7523,4102,3803,4103
7524,3804,4103,3803
7525,4103,3804,4104
7526,3805,4104,3804
7527,4104,3805,4105
7528,4105,3805,3806
7529,3807,4106,3806
7530,3806,4106,4105
7531,3808,4107,3807
7532,4106,3807,4107
7533,3809,4108,3808
7534,4107,3808,4108
7535,3810,4109,3809
7536,4108,3809,4109
7537,3810,3811,4109
7538,4110,4109,3811
7539,3811,3812,4110
7540,4111,4110,3812
7541,3812,3813,4111
7542,4112,4111,3813
7543,3813,3814,4112
7544,4113,4112,3814
7545,3814,3815,4113
7546,4114,4113,3815
7547,3815,3817,4114
7548,4114,3817,4115
7549,3817,4116,4115
7550,4116,4117,4115
7551,3816,4118,3817
7552,4116,3817,4118
7553,3818,4119,3816
7554,4118,3816,4119
7555,4119,3818,4120
7556,4120,3818,3819
7557,3820,4121,3819
7558,4120,3819,4121
7559,3821,4122,3820
7560,4121,3820,4122
7561,4092,3822,4091
7562,3823,4091,3822
7563,3961,3860,4123
7564,3861,4123,3860
7565,4123,3861,4124
7566,3862,4124,3861
7567,3865,4125,3864
7568,4126,3864,4125
7569,3866,4127,3865
7570,4125,3865,4127
7571,4127,3866,4128
7572,3867,4128,3866
7573,4128,3867,4129
7574,3868,4129,3867
7575,4129,3868,4130
7576,4130,3868,3869
7577,3870,4131,3869
7578,3869,4131,4130
7579,3677,4132,3870
7580,4131,3870,4132
7581,3677,3678,4132
7582,4133,4132,3678
7583,3679,4134,3678
7584,4133,3678,4134
7585,3679,4135,4134
7586,4136,4134,4135
7587,4137,4135,3680
7588,3680,4135,3679
7589,4138,4137,3681
7590,3680,3681,4137
7591,3681,3682,4138
7592,4138,3682,3871
7593,3771,3772,3935
7594,3935,3772,4139
7595,3772,3773,4139
7596,4140,4139,3773
7597,3773,3774,4140
7598,4141,4140,3774
7599,3774,3775,4141
7600,4142,4141,3775
7601,3775,3777,4142
7602,4143,4142,3777
7603,3777,4144,4143
7604,4145,4143,4144
7605,3776,4146,3777
7606,4144,3777,4146
7607,4034,4146,3778
7608,3776,3778,4146
7609,4034,3778,4033
7610,3778,3779,4033
7611,4033,3779,4032
7612,3780,4032,3779
7613,4031,3781,4030
7614,3782,4030,3781
7615,4030,3782,4029
7616,3783,4029,3782
7617,3784,3785,3783
7618,3783,3785,4029
7619,4032,3780,4031
7620,3781,4031,3780
7621,4122,4093,3794
7622,3792,3794,4093
7623,4121,4122,4147
7624,3794,4147,4122
7625,4148,3797,3962
7626,3797,3798,3962
7627,4149,4148,3963
7628,3962,3963,4148
7629,4149,3963,4150
7630,3964,4150,3963
7631,4150,3964,4151
7632,3964,3966,4151
7633,4152,4153,3966
7634,4151,3966,4153
7635,4154,4152,3965
7636,3966,3965,4152
7637,4155,4154,3967
7638,3965,3967,4154
7639,4156,4155,3968
7640,3968,4155,3967
7641,4156,3968,4157
7642,3969,4157,3968
7643,4157,3969,4158
7644,3970,4158,3969
7645,3971,4159,3970
7646,4158,3970,4159
7647,4159,3971,4160
7648,3972,4160,3971
7649,4161,4162,3975
7650,4163,3975,4162
7651,4164,4161,3974
7652,3975,3974,4161
7653,3974,3976,4164
7654,4165,4164,3976
7655,3976,3977,4165
7656,4166,4165,3977
7657,3977,3979,4166
7658,4167,4166,3979
7659,3979,4168,4167
7660,4169,4167,4168
7661,3978,4170,3979
7662,4168,3979,4170
7663,3980,4171,3978
7664,4171,4170,3978
7665,3981,4172,3980
7666,4171,3980,4172
7667,3982,4173,3981
7668,4172,3981,4173
7669,3983,4174,3982
7670,4173,3982,4174
7671,3984,4175,3983
7672,3983,4175,4174
7673,4175,3984,4176
7674,3985,4176,3984
7675,4176,3985,4177
7676,3986,4177,3985
7677,3987,4178,3986
7678,4177,3986,4178
7679,3987,3988,4178
7680,4179,4178,3988
7681,3988,3989,4179
7682,3989,4180,4179
7683,3990,3991,4181
7684,4182,4181,3991
7685,3991,3992,4182
7686,4183,4182,3992
7687,3992,3993,4183
7688,4184,4183,3993
7689,3993,3994,4184
7690,3994,4185,4184
7691,3994,3995,4185
7692,4186,4185,3995
7693,3995,3996,4186
7694,4187,4186,3996
7695,3996,4188,4187
7696,4189,4187,4188
7697,4190,4191,4188
7698,4189,4188,4191
7699,4190,4192,4191
7700,4192,4193,4191
7701,4190,3753,4192
7702,4194,4192,3753
7703,4194,3753,4195
7704,3754,4195,3753
7705,4195,3754,4196
7706,3755,4196,3754
7707,3756,4197,3755
7708,4196,3755,4197
7709,3757,4198,3756
7710,3756,4198,4197
7711,3758,4199,3757
7712,4198,3757,4199
7713,3759,3901,3758
7714,4199,3758,3901
7715,3990,4181,3989
7716,4200,3989,4181
7717,4201,4180,4200
7718,3989,4200,4180
7719,4147,3794,4202
7720,3793,4202,3794
7721,3795,4203,3793
7722,4202,3793,4203
7723,4204,4203,3796
7724,3795,3796,4203
7725,4204,3796,4148
7726,3796,3797,4148
7727,3901,3902,4199
7728,4205,4199,3902
7729,3902,3903,4205
7730,4206,4205,3903
7731,3903,3904,4206
7732,3904,4207,4206
7733,3904,3905,4207
7734,4208,4207,3905
7735,3906,4209,3905
7736,4208,3905,4209
7737,4209,3906,4210
7738,3907,4210,3906
7739,3907,3908,4210
7740,4211,4210,3908
7741,3908,3909,4211
7742,4212,4211,3909
7743,4213,4212,3910
7744,3909,3910,4212
7745,4214,4213,3911
7746,3911,4213,3910
7747,4215,4214,3912
7748,3912,4214,3911
7749,4216,4215,3913
7750,3912,3913,4215
7751,4217,4216,3914
7752,3913,3914,4216
7753,4218,4217,3915
7754,3914,3915,4217
7755,4219,4218,3916
7756,3915,3916,4218
7757,4220,4219,3917
7758,3917,4219,3916
7759,3917,4221,4220
7760,4222,4220,4221
7761,4221,3917,4223
7762,4223,3917,3918
7763,3919,4224,3918
7764,4223,3918,4224
7765,4225,4226,3919
7766,4224,3919,4226
7767,3920,4227,4225
7768,4226,4225,4227
7769,3920,3921,4227
7770,4228,4227,3921
7771,3921,3922,4228
7772,3922,4229,4228
7773,3922,3923,4229
7774,4230,4229,3923
7775,3923,3924,4230
7776,3924,4231,4230
7777,3924,3925,4231
7778,4232,4231,3925
7779,3925,3926,4232
7780,4233,4232,3926
7781,3926,3927,4233
7782,4234,4233,3927
7783,3927,3928,4234
7784,4235,4234,3928
7785,3928,3929,4235
7786,4236,4235,3929
7787,3929,3930,4236
7788,4237,4236,3930
7789,3930,3932,4237
7790,4238,4237,3932
7791,3932,4239,4238
7792,4238,4239,4240
7793,3931,4241,3932
7794,4239,3932,4241
7795,3933,4242,3931
7796,4241,3931,4242
7797,3934,4243,3933
7798,4242,3933,4243
7799,3935,4139,3934
7800,4243,3934,4139
7801,3872,4097,3871
7802,4138,3871,4097
7803,4244,3939,3941
7804,3941,3939,3940
7805,4245,4244,3942
7806,3941,3942,4244
7807,4246,4245,3943
7808,3942,3943,4245
7809,4247,4246,3944
7810,3943,3944,4246
7811,4248,4247,3945
7812,3944,3945,4247
7813,4249,4248,3946
7814,3945,3946,4248
7815,3946,3947,4249
7816,4250,4249,3947
7817,3947,3948,4250
7818,4251,4250,3948
7819,3948,3949,4251
7820,4252,4251,3949
7821,3949,3950,4252
7822,4253,4252,3950
7823,3950,3951,4253
7824,3951,4254,4253
7825,3951,3952,4254
7826,3952,4255,4254
7827,4256,4255,3953
7828,3953,4255,3952
7829,3953,3954,4256
7830,4257,4256,3954
7831,3954,3955,4257
7832,4258,4257,3955
7833,4259,4258,3956
7834,3955,3956,4258
7835,3956,3957,4259
7836,4260,4259,3957
7837,4261,4260,3958
7838,3957,3958,4260
7839,3958,3959,4261
7840,4262,4261,3959
7841,3959,3960,4262
7842,4263,4262,3960
7843,3960,3961,4263
7844,4123,4263,3961
7845,4060,4061,4264
7846,4062,4264,4061
7847,4264,4062,4265
7848,4063,4265,4062
7849,4265,4063,4266
7850,4064,4266,4063
7851,4266,4064,4267
7852,4065,4267,4064
7853,4267,4065,4268
7854,4066,4268,4065
7855,4268,4066,4269
7856,4067,4269,4066
7857,4068,4270,4067
7858,4269,4067,4270
7859,4069,4271,4068
7860,4270,4068,4271
7861,4070,4272,4069
7862,4271,4069,4272
7863,4071,4273,4070
7864,4272,4070,4273
7865,4072,4274,4071
7866,4273,4071,4274
7867,4073,4275,4072
7868,4274,4072,4275
7869,4275,4073,4276
7870,4074,4276,4073
7871,4276,4074,4277
7872,4075,4277,4074
7873,4277,4075,4077
7874,4076,4077,4075
7875,4278,4277,4078
7876,4277,4077,4078
7877,4279,4278,4280
7878,4078,4280,4278
7879,4079,4281,4078
7880,4280,4078,4281
7881,4080,4282,4079
7882,4281,4079,4282
7883,4080,4081,4282
7884,4081,4283,4282
7885,4081,4082,4283
7886,4284,4283,4082
7887,4082,4083,4284
7888,4285,4284,4083
7889,4286,4285,4084
7890,4285,4083,4084
7891,4287,4286,4085
7892,4084,4085,4286
7893,4288,4287,4086
7894,4085,4086,4287
7895,4289,4288,4087
7896,4086,4087,4288
7897,4290,4289,4088
7898,4088,4289,4087
7899,4088,4089,4290
7900,4291,4290,4089
7901,4089,4090,4291
7902,4292,4291,4090
7903,4090,3936,4292
7904,4293,4292,3936
7905,4294,4293,3938
7906,3938,4293,3936
7907,4295,4294,4296
7908,3938,4296,4294
7909,3937,4297,3938
7910,4296,3938,4297
7911,3939,4244,3937
7912,4297,3937,4244
7913,4298,4138,4098
7914,4097,4098,4138
7915,4299,4298,4099
7916,4098,4099,4298
7917,4099,4300,4299
7918,4299,4300,4301
7919,4100,4302,4099
7920,4300,4099,4302
7921,4101,4303,4100
7922,4302,4100,4303
7923,4102,4304,4101
7924,4303,4101,4304
7925,4103,4305,4102
7926,4304,4102,4305
7927,4305,4103,4306
7928,4104,4306,4103
7929,4306,4104,4307
7930,4105,4307,4104
7931,4106,4308,4105
7932,4307,4105,4308
7933,4107,4309,4106
7934,4308,4106,4309
7935,4309,4107,4310
7936,4108,4310,4107
7937,4310,4108,4110
7938,4109,4110,4108
7939,4311,4310,4111
7940,4110,4111,4310
7941,4312,4311,4112
7942,4111,4112,4311
7943,4112,4113,4312
7944,4113,4313,4312
7945,4113,4114,4313
7946,4314,4313,4114
7947,4114,4115,4314
7948,4315,4314,4115
7949,4115,4117,4315
7950,4316,4315,4117
7951,4117,4317,4316
7952,4318,4316,4317
7953,4116,4319,4117
7954,4317,4117,4319
7955,4118,4320,4116
7956,4319,4116,4320
7957,4321,4320,4119
7958,4118,4119,4320
7959,4321,4119,4322
7960,4120,4322,4119
7961,4120,4121,4322
7962,4147,4322,4121
7963,4322,4147,4203
7964,4202,4203,4147
7965,4321,4322,4204
7966,4203,4204,4322
7967,4139,4140,4243
7968,4323,4243,4140
7969,4324,4323,4141
7970,4140,4141,4323
7971,4325,4324,4142
7972,4142,4324,4141
7973,4142,4143,4325
7974,4326,4325,4143
7975,4143,4145,4326
7976,4327,4326,4145
7977,4145,4038,4327
7978,4039,4327,4038
7979,4144,4037,4145
7980,4038,4145,4037
7981,4146,4036,4144
7982,4037,4144,4036
7983,4034,4035,4146
7984,4146,4035,4036
7985,4199,4205,4198
7986,4328,4198,4205
7987,4205,4206,4328
7988,4329,4328,4206
7989,4206,4207,4329
7990,4329,4207,4330
7991,4331,4330,4208
7992,4208,4330,4207
7993,4331,4208,4332
7994,4209,4332,4208
7995,4332,4209,4333
7996,4333,4209,4210
7997,4333,4210,4212
7998,4211,4212,4210
7999,4334,4333,4213
8000,4213,4333,4212
8001,4335,4334,4214
8002,4213,4214,4334
8003,4336,4335,4215
8004,4214,4215,4335
8005,4337,4336,4216
8006,4215,4216,4336
8007,4338,4337,4217
8008,4216,4217,4337
8009,4339,4338,4218
8010,4217,4218,4338
8011,4218,4219,4339
8012,4340,4339,4219
8013,4219,4220,4340
8014,4340,4220,4341
8015,4342,4341,4222
8016,4222,4341,4220
8017,4343,4342,4344
8018,4342,4222,4344
8019,4344,4222,4345
8020,4222,4221,4345
8021,4345,4221,4346
8022,4223,4346,4221
8023,4346,4223,4347
8024,4224,4347,4223
8025,4226,4348,4224
8026,4347,4224,4348
8027,4227,4349,4226
8028,4348,4226,4349
8029,4227,4228,4349
8030,4349,4228,4350
8031,4228,4229,4350
8032,4229,4351,4350
8033,4229,4230,4351
8034,4352,4351,4230
8035,4230,4231,4352
8036,4353,4352,4231
8037,4231,4232,4353
8038,4354,4353,4232
8039,4355,4354,4233
8040,4232,4233,4354
8041,4356,4355,4234
8042,4233,4234,4355
8043,4234,4235,4356
8044,4357,4356,4235
8045,4235,4236,4357
8046,4357,4236,4358
8047,4236,4237,4358
8048,4359,4358,4237
8049,4237,4238,4359
8050,4360,4359,4238
8051,4238,4240,4360
8052,4361,4360,4240
8053,4240,4362,4361
8054,4363,4361,4362
8055,4239,4364,4240
8056,4362,4240,4364
8057,4241,4365,4239
8058,4364,4239,4365
8059,4242,4366,4241
8060,4365,4241,4366
8061,4366,4242,4323
8062,4243,4323,4242
8063,4263,4123,4367
8064,4124,4367,4123
8065,4368,4367,4125
8066,4367,4126,4125
8067,4368,4125,4369
8068,4127,4369,4125
8069,4369,4127,4370
8070,4128,4370,4127
8071,4370,4128,4371
8072,4129,4371,4128
8073,4130,4372,4129
8074,4371,4129,4372
8075,4131,4373,4130
8076,4372,4130,4373
8077,4132,4374,4131
8078,4373,4131,4374
8079,4133,4375,4132
8080,4374,4132,4375
8081,4134,4376,4133
8082,4375,4133,4376
8083,4134,4136,4376
8084,4376,4136,4377
8085,4136,4378,4377
8086,4377,4378,4379
8087,4135,4380,4136
8088,4380,4378,4136
8089,4137,4381,4135
8090,4135,4381,4380
8091,4138,4298,4137
8092,4381,4137,4298
8093,4321,4204,4149
8094,4149,4204,4148
8095,4321,4149,4320
8096,4150,4320,4149
8097,4320,4150,4319
8098,4151,4319,4150
8099,4319,4151,4317
8100,4153,4317,4151
8101,4317,4153,4318
8102,4153,4382,4318
8103,4383,4382,4152
8104,4153,4152,4382
8105,4384,4383,4154
8106,4154,4383,4152
8107,4385,4384,4155
8108,4154,4155,4384
8109,4386,4385,4156
8110,4385,4155,4156
8111,4386,4156,4387
8112,4157,4387,4156
8113,4387,4157,4388
8114,4158,4388,4157
8115,4388,4158,4389
8116,4158,4159,4389
8117,4160,4162,4159
8118,4162,4389,4159
8119,4390,4389,4161
8120,4162,4161,4389
8121,4391,4390,4164
8122,4161,4164,4390
8123,4392,4391,4165
8124,4164,4165,4391
8125,4165,4166,4392
8126,4392,4166,4393
8127,4166,4167,4393
8128,4167,4394,4393
8129,4395,4394,4169
8130,4167,4169,4394
8131,4396,4395,4397
8132,4169,4397,4395
8133,4171,4398,4170
8134,4399,4170,4398
8135,4172,4400,4171
8136,4398,4171,4400
8137,4173,4401,4172
8138,4172,4401,4400
8139,4174,4402,4173
8140,4401,4173,4402
8141,4402,4174,4403
8142,4175,4403,4174
8143,4403,4175,4404
8144,4176,4404,4175
8145,4404,4176,4405
8146,4177,4405,4176
8147,4405,4177,4406
8148,4178,4406,4177
8149,4406,4178,4407
8150,4179,4407,4178
8151,4179,4180,4407
8152,4408,4407,4180
8153,4409,4408,4201
8154,4180,4201,4408
8155,4201,4410,4409
8156,4411,4409,4410
8157,4200,4412,4201
8158,4201,4412,4410
8159,4181,4413,4200
8160,4200,4413,4412
8161,4181,4182,4413
8162,4414,4413,4182
8163,4182,4183,4414
8164,4415,4414,4183
8165,4416,4415,4184
8166,4183,4184,4415
8167,4184,4185,4416
8168,4185,4417,4416
8169,4185,4186,4417
8170,4418,4417,4186
8171,4186,4187,4418
8172,4419,4418,4187
8173,4187,4189,4419
8174,4189,4420,4419
8175,4189,4191,4420
8176,4421,4420,4191
8177,4191,4193,4421
8178,4422,4421,4193
8179,4193,4423,4422
8180,4424,4422,4423
8181,4192,4425,4193
8182,4423,4193,4425
8183,4425,4192,4426
8184,4194,4426,4192
8185,4426,4194,4427
8186,4427,4194,4195
8187,4427,4195,4428
8188,4195,4196,4428
8189,4197,4429,4196
8190,4196,4429,4428
8191,4198,4328,4197
8192,4429,4197,4328
8193,4430,4281,4283
8194,4282,4283,4281
8195,4431,4430,4284
8196,4283,4284,4430
8197,4432,4431,4285
8198,4284,4285,4431
8199,4285,4286,4432
8200,4433,4432,4286
8201,4286,4287,4433
8202,4433,4287,4434
8203,4287,4288,4434
8204,4435,4434,4288
8205,4436,4435,4289
8206,4289,4435,4288
8207,4437,4436,4290
8208,4289,4290,4436
8209,4290,4291,4437
8210,4438,4437,4291
8211,4291,4292,4438
8212,4439,4438,4292
8213,4292,4293,4439
8214,4440,4439,4293
8215,4293,4294,4440
8216,4441,4440,4294
8217,4442,4441,4295
8218,4294,4295,4441
8219,4443,4442,4444
8220,4295,4444,4442
8221,4444,4295,4445
8222,4296,4445,4295
8223,4445,4296,4446
8224,4297,4446,4296
8225,4244,4245,4297
8226,4446,4297,4245
8227,4327,4039,4447
8228,4447,4039,4040
8229,4447,4040,4448
8230,4041,4448,4040
8231,4448,4041,4449
8232,4449,4041,4042
8233,4449,4042,4450
8234,4043,4450,4042
8235,4450,4043,4451
8236,4451,4043,4044
8237,4451,4044,4452
8238,4045,4452,4044
8239,4452,4045,4453
8240,4046,4453,4045
8241,4453,4046,4454
8242,4047,4454,4046
8243,4454,4047,4455
8244,4455,4047,4048
8245,4455,4048,4456
8246,4048,4049,4456
8247,4456,4049,4457
8248,4050,4457,4049
8249,4457,4050,4458
8250,4458,4050,4051
8251,4458,4051,4459
8252,4052,4459,4051
8253,4459,4052,4460
8254,4053,4460,4052
8255,4460,4053,4461
8256,4054,4461,4053
8257,4461,4054,4462
8258,4055,4462,4054
8259,4462,4055,4463
8260,4056,4463,4055
8261,4463,4056,4464
8262,4057,4464,4056
8263,4464,4057,4059
8264,4059,4057,4058
8265,4465,4381,4299
8266,4298,4299,4381
8267,4299,4301,4465
8268,4465,4301,4466
8269,4301,4467,4466
8270,4468,4466,4467
8271,4300,4469,4301
8272,4467,4301,4469
8273,4302,4470,4300
8274,4469,4300,4470
8275,4303,4471,4302
8276,4470,4302,4471
8277,4304,4472,4303
8278,4471,4303,4472
8279,4305,4473,4304
8280,4472,4304,4473
8281,4306,4474,4305
8282,4473,4305,4474
8283,4474,4306,4475
8284,4307,4475,4306
8285,4475,4307,4309
8286,4309,4307,4308
8287,4310,4476,4309
8288,4309,4476,4475
8289,4310,4311,4476
8290,4476,4311,4477
8291,4311,4312,4477
8292,4478,4477,4312
8293,4312,4313,4478
8294,4478,4313,4479
8295,4313,4314,4479
8296,4480,4479,4314
8297,4314,4315,4480
8298,4315,4481,4480
8299,4482,4481,4316
8300,4315,4316,4481
8301,4382,4482,4318
8302,4316,4318,4482
8303,4262,4263,4368
8304,4263,4367,4368
8305,4261,4262,4369
8306,4368,4369,4262
8307,4260,4261,4370
8308,4369,4370,4261
8309,4371,4483,4370
8310,4260,4370,4483
8311,4372,4484,4371
8312,4483,4371,4484
8313,4373,4485,4372
8314,4372,4485,4484
8315,4374,4486,4373
8316,4485,4373,4486
8317,4375,4487,4374
8318,4486,4374,4487
8319,4377,4379,4488
8320,4379,4489,4488
8321,4490,4489,4491
8322,4379,4491,4489
8323,4378,4492,4379
8324,4491,4379,4492
8325,4380,4493,4378
8326,4492,4378,4493
8327,4381,4465,4380
8328,4493,4380,4465
8329,4494,4366,4324
8330,4323,4324,4366
8331,4495,4494,4325
8332,4325,4494,4324
8333,4325,4326,4495
8334,4496,4495,4326
8335,4326,4327,4496
8336,4447,4496,4327
8337,4328,4329,4429
8338,4497,4429,4329
8339,4498,4497,4330
8340,4329,4330,4497
8341,4499,4498,4331
8342,4330,4331,4498
8343,4499,4331,4500
8344,4332,4500,4331
8345,4500,4332,4334
8346,4333,4334,4332
8347,4501,4276,4278
8348,4276,4277,4278
8349,4278,4279,4501
8350,4501,4279,4502
8351,4279,4503,4502
8352,4504,4502,4503
8353,4503,4279,4505
8354,4505,4279,4280
8355,4281,4430,4280
8356,4505,4280,4430
8357,4506,4412,4414
8358,4413,4414,4412
8359,4507,4506,4415
8360,4414,4415,4506
8361,4508,4507,4416
8362,4415,4416,4507
8363,4508,4416,4509
8364,4416,4417,4509
8365,4509,4417,4510
8366,4418,4510,4417
8367,4510,4418,4511
8368,4419,4511,4418
8369,4419,4420,4511
8370,4512,4511,4420
8371,4420,4421,4512
8372,4513,4512,4421
8373,4514,4513,4422
8374,4421,4422,4513
8375,4515,4514,4424
8376,4422,4424,4514
8377,4516,4515,4517
8378,4424,4517,4515
8379,4423,4518,4424
8380,4517,4424,4518
8381,4425,4519,4423
8382,4518,4423,4519
8383,4426,4520,4425
8384,4519,4425,4520
8385,4520,4426,4521
8386,4427,4521,4426
8387,4521,4427,4522
8388,4428,4522,4427
8389,4522,4428,4497
8390,4429,4497,4428
8391,4496,4447,4523
8392,4448,4523,4447
8393,4523,4448,4524
8394,4448,4449,4524
8395,4524,4449,4525
8396,4449,4450,4525
8397,4525,4450,4526
8398,4451,4526,4450
8399,4526,4451,4527
8400,4452,4527,4451
8401,4527,4452,4528
8402,4453,4528,4452
8403,4528,4453,4529
8404,4454,4529,4453
8405,4529,4454,4530
8406,4455,4530,4454
8407,4530,4455,4531
8408,4456,4531,4455
8409,4531,4456,4532
8410,4457,4532,4456
8411,4532,4457,4533
8412,4458,4533,4457
8413,4533,4458,4534
8414,4459,4534,4458
8415,4534,4459,4535
8416,4460,4535,4459
8417,4535,4460,4536
8418,4461,4536,4460
8419,4536,4461,4537
8420,4462,4537,4461
8421,4537,4462,4538
8422,4463,4538,4462
8423,4538,4463,4539
8424,4464,4539,4463
8425,4539,4464,4540
8426,4059,4540,4464
8427,4060,4541,4059
8428,4540,4059,4541
8429,4541,4060,4542
8430,4542,4060,4264
8431,4542,4264,4543
8432,4265,4543,4264
8433,4543,4265,4544
8434,4266,4544,4265
8435,4544,4266,4545
8436,4267,4545,4266
8437,4545,4267,4546
8438,4268,4546,4267
8439,4269,4547,4268
8440,4268,4547,4546
8441,4547,4269,4548
8442,4270,4548,4269
8443,4548,4270,4549
8444,4270,4271,4549
8445,4550,4549,4272
8446,4271,4272,4549
8447,4550,4272,4551
8448,4273,4551,4272
8449,4552,4551,4274
8450,4273,4274,4551
8451,4553,4552,4275
8452,4274,4275,4552
8453,4501,4553,4276
8454,4275,4276,4553
8455,4554,4446,4246
8456,4446,4245,4246
8457,4555,4554,4247
8458,4247,4554,4246
8459,4556,4555,4248
8460,4247,4248,4555
8461,4557,4556,4249
8462,4248,4249,4556
8463,4557,4249,4558
8464,4250,4558,4249
8465,4558,4250,4559
8466,4559,4250,4251
8467,4251,4252,4559
8468,4560,4559,4252
8469,4252,4253,4560
8470,4561,4560,4253
8471,4253,4254,4561
8472,4562,4561,4254
8473,4254,4255,4562
8474,4563,4562,4255
8475,4255,4256,4563
8476,4256,4564,4563
8477,4565,4564,4257
8478,4256,4257,4564
8479,4257,4258,4565
8480,4566,4565,4258
8481,4258,4259,4566
8482,4567,4566,4259
8483,4259,4260,4567
8484,4483,4567,4260
8485,4568,4347,4349
8486,4348,4349,4347
8487,4569,4568,4350
8488,4349,4350,4568
8489,4570,4569,4351
8490,4350,4351,4569
8491,4571,4570,4352
8492,4351,4352,4570
8493,4572,4571,4353
8494,4352,4353,4571
8495,4572,4353,4355
8496,4354,4355,4353
8497,4573,4505,4431
8498,4430,4431,4505
8499,4574,4573,4432
8500,4573,4431,4432
8501,4575,4574,4433
8502,4432,4433,4574
8503,4433,4434,4575
8504,4576,4575,4434
8505,4434,4435,4576
8506,4577,4576,4435
8507,4435,4436,4577
8508,4578,4577,4436
8509,4579,4578,4437
8510,4578,4436,4437
8511,4580,4579,4438
8512,4437,4438,4579
8513,4581,4580,4439
8514,4438,4439,4580
8515,4582,4581,4440
8516,4439,4440,4581
8517,4442,4582,4441
8518,4440,4441,4582
8519,4583,4582,4443
8520,4442,4443,4582
8521,4584,4583,4585
8522,4443,4585,4583
8523,4585,4443,4586
8524,4444,4586,4443
8525,4586,4444,4587
8526,4445,4587,4444
8527,4587,4445,4588
8528,4446,4588,4445
8529,4446,4554,4588
8530,4589,4588,4554
8531,4590,4589,4555
8532,4554,4555,4589
8533,4555,4556,4590
8534,4591,4590,4556
8535,4592,4591,4557
8536,4556,4557,4591
8537,4592,4557,4593
8538,4558,4593,4557
8539,4593,4558,4594
8540,4559,4594,4558
8541,4560,4595,4559
8542,4594,4559,4595
8543,4560,4561,4595
8544,4596,4595,4561
8545,4561,4562,4596
8546,4597,4596,4562
8547,4562,4563,4597
8548,4563,4598,4597
8549,4599,4598,4564
8550,4563,4564,4598
8551,4600,4599,4565
8552,4564,4565,4599
8553,4600,4565,4601
8554,4566,4601,4565
8555,4566,4567,4601
8556,4602,4601,4567
8557,4484,4602,4483
8558,4567,4483,4602
8559,4603,4465,4468
8560,4466,4468,4465
8561,4604,4603,4605
8562,4468,4605,4603
8563,4467,4606,4468
8564,4605,4468,4606
8565,4469,4607,4467
8566,4606,4467,4607
8567,4470,4608,4469
8568,4608,4607,4469
8569,4471,4609,4470
8570,4608,4470,4609
8571,4472,4610,4471
8572,4471,4610,4609
8573,4473,4611,4472
8574,4610,4472,4611
8575,4474,4612,4473
8576,4611,4473,4612
8577,4612,4474,4476
8578,4476,4474,4475
8579,4613,4572,4356
8580,4355,4356,4572
8581,4356,4357,4613
8582,4614,4613,4357
8583,4357,4358,4614
8584,4615,4614,4358
8585,4616,4615,4359
8586,4358,4359,4615
8587,4617,4616,4360
8588,4359,4360,4616
8589,4360,4361,4617
8590,4618,4617,4361
8591,4361,4363,4618
8592,4619,4618,4363
8593,4363,4620,4619
8594,4621,4619,4620
8595,4362,4622,4363
8596,4620,4363,4622
8597,4364,4623,4362
8598,4622,4362,4623
8599,4623,4364,4624
8600,4365,4624,4364
8601,4624,4365,4494
8602,4366,4494,4365
8603,4625,4500,4335
8604,4335,4500,4334
8605,4626,4625,4336
8606,4335,4336,4625
8607,4627,4626,4337
8608,4336,4337,4626
8609,4337,4338,4627
8610,4628,4627,4338
8611,4338,4339,4628
8612,4629,4628,4339
8613,4339,4340,4629
8614,4629,4340,4630
8615,4340,4341,4630
8616,4631,4630,4341
8617,4341,4342,4631
8618,4632,4631,4342
8619,4342,4343,4632
8620,4633,4632,4343
8621,4634,4633,4635
8622,4343,4635,4633
8623,4635,4343,4636
8624,4344,4636,4343
8625,4636,4344,4637
8626,4345,4637,4344
8627,4637,4345,4638
8628,4346,4638,4345
8629,4638,4346,4568
8630,4347,4568,4346
8631,4485,4601,4484
8632,4602,4484,4601
8633,4600,4601,4486
8634,4485,4486,4601
8635,4487,4639,4486
8636,4600,4486,4639
8637,4640,4639,4489
8638,4488,4489,4639
8639,4641,4640,4490
8640,4489,4490,4640
8641,4642,4641,4643
8642,4490,4643,4641
8643,4643,4490,4644
8644,4491,4644,4490
8645,4492,4645,4491
8646,4644,4491,4645
8647,4493,4646,4492
8648,4645,4492,4646
8649,4646,4493,4603
8650,4465,4603,4493
8651,4612,4476,4647
8652,4477,4647,4476
8653,4647,4477,4648
8654,4478,4648,4477
8655,4478,4479,4648
8656,4649,4648,4479
8657,4479,4480,4649
8658,4650,4649,4480
8659,4480,4481,4650
8660,4651,4650,4481
8661,4481,4482,4651
8662,4482,4652,4651
8663,4382,4653,4482
8664,4653,4652,4482
8665,4382,4383,4653
8666,4653,4383,4654
8667,4383,4384,4654
8668,4655,4654,4384
8669,4656,4655,4385
8670,4385,4655,4384
8671,4657,4656,4386
8672,4385,4386,4656
8673,4658,4657,4387
8674,4386,4387,4657
8675,4658,4387,4659
8676,4659,4387,4388
8677,4659,4388,4390
8678,4389,4390,4388
8679,4495,4496,4660
8680,4523,4660,4496
8681,4660,4523,4661
8682,4524,4661,4523
8683,4662,4525,4663
8684,4663,4525,4526
8685,4663,4526,4664
8686,4527,4664,4526
8687,4664,4527,4665
8688,4527,4528,4665
8689,4665,4528,4666
8690,4529,4666,4528
8691,4666,4529,4667
8692,4530,4667,4529
8693,4667,4530,4668
8694,4531,4668,4530
8695,4668,4531,4669
8696,4532,4669,4531
8697,4669,4532,4670
8698,4533,4670,4532
8699,4670,4533,4671
8700,4534,4671,4533
8701,4671,4534,4672
8702,4535,4672,4534
8703,4672,4535,4673
8704,4536,4673,4535
8705,4673,4536,4674
8706,4674,4536,4537
8707,4674,4537,4675
8708,4538,4675,4537
8709,4675,4538,4676
8710,4539,4676,4538
8711,4676,4539,4677
8712,4540,4677,4539
8713,4541,4678,4540
8714,4540,4678,4677
8715,4678,4541,4679
8716,4542,4679,4541
8717,4679,4542,4680
8718,4543,4680,4542
8719,4680,4543,4681
8720,4544,4681,4543
8721,4681,4544,4682
8722,4545,4682,4544
8723,4682,4545,4683
8724,4546,4683,4545
8725,4547,4684,4546
8726,4684,4683,4546
8727,4548,4685,4547
8728,4685,4684,4547
8729,4685,4548,4686
8730,4549,4686,4548
8731,4687,4686,4550
8732,4549,4550,4686
8733,4551,4688,4550
8734,4688,4687,4550
8735,4551,4552,4688
8736,4689,4688,4552
8737,4552,4553,4689
8738,4690,4689,4553
8739,4553,4501,4690
8740,4691,4690,4501
8741,4501,4502,4691
8742,4692,4691,4502
8743,4502,4504,4692
8744,4693,4692,4504
8745,4694,4693,4695
8746,4504,4695,4693
8747,4503,4696,4504
8748,4504,4696,4695
8749,4505,4697,4503
8750,4696,4503,4697
8751,4505,4573,4697
8752,4698,4697,4573
8753,4573,4574,4698
8754,4699,4698,4574
8755,4574,4575,4699
8756,4700,4699,4575
8757,4575,4576,4700
8758,4701,4700,4576
8759,4576,4577,4701
8760,4702,4701,4577
8761,4703,4702,4578
8762,4577,4578,4702
8763,4704,4703,4579
8764,4578,4579,4703
8765,4704,4579,4705
8766,4580,4705,4579
8767,4705,4580,4706
8768,4581,4706,4580
8769,4706,4581,4583
8770,4582,4583,4581
8771,4707,4522,4498
8772,4522,4497,4498
8773,4708,4707,4499
8774,4498,4499,4707
8775,4708,4499,4625
8776,4500,4625,4499
8777,4709,4410,4506
8778,4412,4506,4410
8779,4710,4709,4507
8780,4506,4507,4709
8781,4711,4710,4508
8782,4710,4507,4508
8783,4711,4508,4712
8784,4712,4508,4509
8785,4712,4509,4713
8786,4510,4713,4509
8787,4713,4510,4714
8788,4511,4714,4510
8789,4714,4511,4513
8790,4512,4513,4511
8791,4715,4714,4514
8792,4514,4714,4513
8793,4716,4715,4515
8794,4514,4515,4715
8795,4716,4515,4717
8796,4516,4717,4515
8797,4717,4516,4718
8798,4719,4718,4516
8799,4516,4517,4719
8800,4517,4518,4719
8801,4719,4518,4720
8802,4720,4518,4519
8803,4520,4721,4519
8804,4720,4519,4721
8805,4521,4722,4520
8806,4721,4520,4722
8807,4722,4521,4707
8808,4522,4707,4521
8809,4660,4624,4495
8810,4495,4624,4494
8811,4723,4659,4391
8812,4390,4391,4659
8813,4724,4723,4392
8814,4392,4723,4391
8815,4392,4393,4724
8816,4725,4724,4393
8817,4393,4394,4725
8818,4726,4725,4394
8819,4394,4395,4726
8820,4727,4726,4395
8821,4728,4727,4396
8822,4395,4396,4727
8823,4729,4728,4730
8824,4396,4730,4728
8825,4730,4396,4731
8826,4397,4731,4396
8827,4732,4731,4398
8828,4399,4398,4731
8829,4400,4733,4398
8830,4732,4398,4733
8831,4401,4734,4400
8832,4733,4400,4734
8833,4402,4735,4401
8834,4734,4401,4735
8835,4403,4736,4402
8836,4735,4402,4736
8837,4404,4737,4403
8838,4403,4737,4736
8839,4737,4404,4738
8840,4405,4738,4404
8841,4738,4405,4739
8842,4406,4739,4405
8843,4739,4406,4740
8844,4407,4740,4406
8845,4603,4604,4646
8846,4741,4646,4604
8847,4742,4741,4743
8848,4604,4743,4741
8849,4605,4744,4604
8850,4743,4604,4744
8851,4606,4745,4605
8852,4744,4605,4745
8853,4607,4746,4606
8854,4745,4606,4746
8855,4608,4747,4607
8856,4746,4607,4747
8857,4609,4748,4608
8858,4747,4608,4748
8859,4610,4749,4609
8860,4748,4609,4749
8861,4749,4610,4750
8862,4611,4750,4610
8863,4750,4611,4751
8864,4751,4611,4612
8865,4647,4752,4612
8866,4751,4612,4752
8867,4648,4753,4647
8868,4752,4647,4753
8869,4649,4754,4648
8870,4753,4648,4754
8871,4650,4755,4649
8872,4649,4755,4754
8873,4650,4651,4755
8874,4755,4651,4756
8875,4651,4652,4756
8876,4652,4757,4756
8877,4652,4653,4757
8878,4653,4758,4757
8879,4653,4654,4758
8880,4758,4654,4759
8881,4654,4655,4759
8882,4760,4759,4655
8883,4761,4760,4656
8884,4655,4656,4760
8885,4761,4656,4762
8886,4657,4762,4656
8887,4762,4657,4763
8888,4658,4763,4657
8889,4763,4658,4723
8890,4659,4723,4658
8891,4764,4638,4569
8892,4568,4569,4638
8893,4765,4764,4570
8894,4569,4570,4764
8895,4766,4765,4571
8896,4765,4570,4571
8897,4571,4572,4766
8898,4767,4766,4572
8899,4768,4767,4613
8900,4572,4613,4767
8901,4613,4614,4768
8902,4769,4768,4614
8903,4614,4615,4769
8904,4770,4769,4615
8905,4771,4770,4616
8906,4615,4616,4770
8907,4772,4771,4617
8908,4616,4617,4771
8909,4773,4772,4618
8910,4617,4618,4772
8911,4774,4773,4619
8912,4618,4619,4773
8913,4775,4774,4621
8914,4619,4621,4774
8915,4663,4775,4662
8916,4621,4662,4775
8917,4776,4706,4584
8918,4583,4584,4706
8919,4777,4778,4584
8920,4776,4584,4778
8921,4779,4777,4585
8922,4585,4777,4584
8923,4586,4780,4585
8924,4779,4585,4780
8925,4587,4781,4586
8926,4780,4586,4781
8927,4588,4782,4587
8928,4781,4587,4782
8929,4589,4783,4588
8930,4782,4588,4783
8931,4590,4784,4589
8932,4783,4589,4784
8933,4590,4591,4784
8934,4785,4784,4591
8935,4786,4785,4592
8936,4591,4592,4785
8937,4786,4592,4787
8938,4593,4787,4592
8939,4594,4788,4593
8940,4787,4593,4788
8941,4595,4789,4594
8942,4594,4789,4788
8943,4595,4596,4789
8944,4790,4789,4596
8945,4664,4791,4663
8946,4663,4791,4775
8947,4665,4792,4664
8948,4791,4664,4792
8949,4666,4793,4665
8950,4792,4665,4793
8951,4793,4666,4794
8952,4667,4794,4666
8953,4668,4795,4667
8954,4795,4794,4667
8955,4795,4668,4796
8956,4669,4796,4668
8957,4796,4669,4797
8958,4670,4797,4669
8959,4797,4670,4798
8960,4671,4798,4670
8961,4798,4671,4799
8962,4672,4799,4671
8963,4799,4672,4800
8964,4673,4800,4672
8965,4800,4673,4801
8966,4673,4674,4801
8967,4801,4674,4802
8968,4675,4802,4674
8969,4802,4675,4803
8970,4675,4676,4803
8971,4803,4676,4804
8972,4677,4804,4676
8973,4804,4677,4805
8974,4805,4677,4678
8975,4805,4678,4806
8976,4679,4806,4678
8977,4806,4679,4807
8978,4679,4680,4807
8979,4807,4680,4808
8980,4681,4808,4680
8981,4808,4681,4809
8982,4682,4809,4681
8983,4809,4682,4810
8984,4683,4810,4682
8985,4810,4683,4811
8986,4683,4684,4811
8987,4811,4684,4812
8988,4812,4684,4685
8989,4685,4686,4812
8990,4813,4812,4686
8991,4814,4813,4687
8992,4686,4687,4813
8993,4815,4814,4688
8994,4687,4688,4814
8995,4688,4689,4815
8996,4816,4815,4689
8997,4689,4690,4816
8998,4817,4816,4690
8999,4818,4817,4691
9000,4690,4691,4817
9001,4691,4692,4818
9002,4819,4818,4692
9003,4692,4693,4819
9004,4820,4819,4693
9005,4821,4820,4694
9006,4694,4820,4693
9007,4822,4821,4823
9008,4694,4823,4821
9009,4695,4824,4694
9010,4823,4694,4824
9011,4696,4825,4695
9012,4824,4695,4825
9013,4697,4826,4696
9014,4825,4696,4826
9015,4697,4698,4826
9016,4826,4698,4827
9017,4698,4699,4827
9018,4828,4827,4699
9019,4699,4700,4828
9020,4829,4828,4700
9021,4700,4701,4829
9022,4701,4830,4829
9023,4701,4702,4830
9024,4831,4830,4702
9025,4702,4703,4831
9026,4832,4831,4703
9027,4703,4704,4832
9028,4833,4832,4704
9029,4706,4776,4705
9030,4834,4705,4776
9031,4705,4834,4704
9032,4835,4704,4834
9033,4836,4833,4835
9034,4704,4835,4833
9035,4837,4708,4626
9036,4625,4626,4708
9037,4626,4627,4837
9038,4838,4837,4627
9039,4627,4628,4838
9040,4838,4628,4839
9041,4628,4629,4839
9042,4840,4839,4629
9043,4629,4630,4840
9044,4841,4840,4630
9045,4630,4631,4841
9046,4842,4841,4631
9047,4631,4632,4842
9048,4843,4842,4632
9049,4632,4633,4843
9050,4844,4843,4633
9051,4633,4634,4844
9052,4845,4844,4634
9053,4846,4845,4847
9054,4634,4847,4845
9055,4847,4634,4848
9056,4635,4848,4634
9057,4848,4635,4849
9058,4636,4849,4635
9059,4849,4636,4850
9060,4637,4850,4636
9061,4850,4637,4764
9062,4637,4638,4764
9063,4662,4621,4661
9064,4661,4621,4620
9065,4661,4524,4662
9066,4525,4662,4524
9067,4599,4600,4640
9068,4600,4639,4640
9069,4598,4599,4641
9070,4640,4641,4599
9071,4597,4598,4642
9072,4641,4642,4598
9073,4596,4597,4790
9074,4597,4642,4790
9075,4790,4642,4851
9076,4643,4851,4642
9077,4851,4643,4852
9078,4644,4852,4643
9079,4645,4853,4644
9080,4852,4644,4853
9081,4646,4741,4645
9082,4645,4741,4853
9083,4854,4411,4709
9084,4411,4410,4709
9085,4855,4713,4715
9086,4714,4715,4713
9087,4856,4855,4716
9088,4715,4716,4855
9089,4718,4857,4717
9090,4858,4717,4857
9091,4857,4718,4859
9092,4860,4859,4718
9093,4718,4719,4860
9094,4861,4860,4719
9095,4719,4720,4861
9096,4861,4720,4862
9097,4721,4863,4720
9098,4862,4720,4863
9099,4722,4837,4721
9100,4863,4721,4837
9101,4837,4722,4708
9102,4707,4708,4722
9103,4791,4864,4775
9104,4774,4775,4864
9105,4864,4791,4865
9106,4865,4791,4792
9107,4865,4792,4866
9108,4793,4866,4792
9109,4794,4867,4793
9110,4866,4793,4867
9111,4867,4794,4868
9112,4795,4868,4794
9113,4796,4869,4795
9114,4795,4869,4868
9115,4869,4796,4870
9116,4797,4870,4796
9117,4870,4797,4871
9118,4798,4871,4797
9119,4871,4798,4872
9120,4872,4798,4799
9121,4872,4799,4873
9122,4800,4873,4799
9123,4873,4800,4874
9124,4801,4874,4800
9125,4874,4801,4875
9126,4802,4875,4801
9127,4875,4802,4876
9128,4803,4876,4802
9129,4876,4803,4877
9130,4804,4877,4803
9131,4877,4804,4878
9132,4805,4878,4804
9133,4878,4805,4879
9134,4806,4879,4805
9135,4879,4806,4880
9136,4880,4806,4807
9137,4880,4807,4881
9138,4808,4881,4807
9139,4881,4808,4882
9140,4809,4882,4808
9141,4882,4809,4883
9142,4810,4883,4809
9143,4811,4884,4810
9144,4883,4810,4884
9145,4812,4885,4811
9146,4884,4811,4885
9147,4812,4813,4885
9148,4886,4885,4813
9149,4813,4814,4886
9150,4887,4886,4814
9151,4814,4815,4887
9152,4887,4815,4888
9153,4815,4816,4888
9154,4889,4888,4816
9155,4817,4890,4816
9156,4889,4816,4890
9157,4817,4818,4890
9158,4891,4890,4818
9159,4818,4819,4891
9160,4892,4891,4819
9161,4819,4820,4892
9162,4893,4892,4820
9163,4894,4893,4821
9164,4820,4821,4893
9165,4821,4822,4894
9166,4895,4894,4822
9167,4896,4895,4897
9168,4822,4897,4895
9169,4897,4822,4898
9170,4823,4898,4822
9171,4899,4900,4826
9172,4825,4826,4900
9173,4901,4899,4827
9174,4826,4827,4899
9175,4902,4901,4828
9176,4827,4828,4901
9177,4902,4828,4903
9178,4903,4828,4829
9179,4830,4904,4829
9180,4903,4829,4904
9181,4830,4831,4904
9182,4905,4904,4831
9183,4831,4832,4905
9184,4905,4832,4906
9185,4832,4833,4906
9186,4907,4906,4833
9187,4908,4907,4836
9188,4833,4836,4907
9189,4909,4908,4910
9190,4908,4836,4910
9191,4835,4911,4836
9192,4910,4836,4911
9193,4834,4912,4835
9194,4911,4835,4912
9195,4834,4776,4912
9196,4776,4778,4912
9197,4913,4850,4765
9198,4764,4765,4850
9199,4914,4913,4766
9200,4765,4766,4913
9201,4915,4914,4767
9202,4766,4767,4914
9203,4916,4915,4768
9204,4915,4767,4768
9205,4917,4916,4769
9206,4768,4769,4916
9207,4771,4917,4770
9208,4769,4770,4917
9209,4917,4771,4918
9210,4772,4918,4771
9211,4919,4918,4773
9212,4772,4773,4918
9213,4864,4919,4774
9214,4773,4774,4919
9215,4920,4733,4735
9216,4734,4735,4733
9217,4921,4920,4736
9218,4735,4736,4920
9219,4922,4921,4737
9220,4737,4921,4736
9221,4738,4923,4737
9222,4922,4737,4923
9223,4924,4739,4925
9224,4740,4925,4739
9225,4411,4925,4409
9226,4740,4409,4925
9227,4740,4407,4409
9228,4408,4409,4407
9229,4739,4924,4738
9230,4926,4738,4924
9231,4738,4926,4923
9232,4927,4923,4926
9233,4928,4853,4742
9234,4741,4742,4853
9235,4929,4928,4930
9236,4928,4742,4930
9237,4930,4742,4931
9238,4743,4931,4742
9239,4744,4932,4743
9240,4931,4743,4932
9241,4932,4744,4933
9242,4745,4933,4744
9243,4746,4934,4745
9244,4933,4745,4934
9245,4934,4746,4935
9246,4747,4935,4746
9247,4748,4936,4747
9248,4935,4747,4936
9249,4749,4937,4748
9250,4936,4748,4937
9251,4937,4749,4938
9252,4750,4938,4749
9253,4938,4750,4939
9254,4750,4751,4939
9255,4752,4940,4751
9256,4939,4751,4940
9257,4753,4941,4752
9258,4752,4941,4940
9259,4754,4942,4753
9260,4941,4753,4942
9261,4755,4943,4754
9262,4942,4754,4943
9263,4756,4944,4755
9264,4943,4755,4944
9265,4757,4945,4756
9266,4944,4756,4945
9267,4757,4758,4945
9268,4946,4945,4758
9269,4758,4759,4946
9270,4947,4946,4759
9271,4759,4760,4947
9272,4948,4947,4760
9273,4760,4761,4948
9274,4949,4948,4761
9275,4762,4763,4950
9276,4951,4950,4763
9277,4724,4951,4723
9278,4763,4723,4951
9279,4762,4950,4761
9280,4952,4761,4950
9281,4953,4949,4952
9282,4761,4952,4949
9283,4837,4838,4863
9284,4863,4838,4954
9285,4838,4839,4954
9286,4955,4954,4839
9287,4839,4840,4955
9288,4955,4840,4956
9289,4840,4841,4956
9290,4957,4956,4841
9291,4841,4842,4957
9292,4958,4957,4842
9293,4842,4843,4958
9294,4959,4958,4843
9295,4843,4844,4959
9296,4960,4959,4844
9297,4844,4845,4960
9298,4961,4960,4845
9299,4962,4961,4846
9300,4845,4846,4961
9301,4963,4962,4964
9302,4962,4846,4964
9303,4964,4846,4965
9304,4847,4965,4846
9305,4965,4847,4966
9306,4848,4966,4847
9307,4966,4848,4967
9308,4849,4967,4848
9309,4967,4849,4913
9310,4849,4850,4913
9311,4789,4790,4968
9312,4851,4968,4790
9313,4969,4911,4778
9314,4912,4778,4911
9315,4969,4778,4970
9316,4777,4970,4778
9317,4779,4971,4777
9318,4970,4777,4971
9319,4781,4972,4780
9320,4973,4780,4972
9321,4782,4974,4781
9322,4972,4781,4974
9323,4783,4975,4782
9324,4974,4782,4975
9325,4784,4976,4783
9326,4783,4976,4975
9327,4977,4976,4785
9328,4784,4785,4976
9329,4931,4977,4786
9330,4785,4786,4977
9331,4931,4786,4930
9332,4787,4930,4786
9333,4788,4929,4787
9334,4930,4787,4929
9335,4789,4968,4788
9336,4929,4788,4968
9337,4978,4779,4973
9338,4780,4973,4779
9339,4979,4971,4978
9340,4971,4779,4978
9341,4980,4854,4710
9342,4709,4710,4854
9343,4981,4980,4711
9344,4710,4711,4980
9345,4981,4711,4982
9346,4712,4982,4711
9347,4982,4712,4855
9348,4713,4855,4712
9349,4983,4732,4920
9350,4733,4920,4732
9351,4984,4983,4921
9352,4920,4921,4983
9353,4985,4984,4922
9354,4984,4921,4922
9355,4923,4986,4922
9356,4985,4922,4986
9357,4923,4927,4986
9358,4927,4987,4986
9359,4988,4987,4989
9360,4987,4927,4989
9361,4926,4990,4927
9362,4989,4927,4990
9363,4924,4991,4926
9364,4990,4926,4991
9365,4925,4992,4924
9366,4924,4992,4991
9367,4411,4993,4925
9368,4993,4992,4925
9369,4411,4854,4993
9370,4994,4993,4854
9371,4854,4980,4994
9372,4995,4994,4980
9373,4981,4996,4980
9374,4995,4980,4996
9375,4997,4982,4856
9376,4855,4856,4982
9377,4982,4997,4981
9378,4981,4997,4998
9379,4981,4998,4996
9380,4999,4996,4998
9381,4919,4864,5000
9382,5000,4864,4865
9383,5000,4865,5001
9384,4866,5001,4865
9385,4867,5002,4866
9386,5001,4866,5002
9387,4868,5003,4867
9388,5002,4867,5003
9389,5003,4868,5004
9390,4868,4869,5004
9391,5004,4869,5005
9392,4870,5005,4869
9393,5005,4870,5006
9394,4871,5006,4870
9395,4872,5007,4871
9396,5006,4871,5007
9397,4873,5008,4872
9398,5007,4872,5008
9399,4874,5009,4873
9400,5008,4873,5009
9401,5009,4874,5010
9402,5010,4874,4875
9403,5010,4875,5011
9404,4876,5011,4875
9405,5011,4876,5012
9406,4877,5012,4876
9407,5012,4877,5013
9408,4877,4878,5013
9409,5013,4878,5014
9410,4879,5014,4878
9411,5014,4879,5015
9412,4880,5015,4879
9413,5016,5015,4881
9414,4880,4881,5015
9415,5016,4881,5017
9416,4882,5017,4881
9417,5017,4882,5018
9418,4883,5018,4882
9419,5018,4883,5019
9420,4884,5019,4883
9421,4884,4885,5019
9422,5020,5019,4885
9423,4885,4886,5020
9424,5021,5020,4886
9425,4886,4887,5021
9426,5022,5021,4887
9427,5023,5022,4888
9428,4887,4888,5022
9429,5024,5023,4889
9430,4888,4889,5023
9431,5024,4889,5025
9432,4890,5025,4889
9433,5025,4890,4892
9434,4891,4892,4890
9435,5026,4938,4940
9436,4939,4940,4938
9437,5026,4940,5027
9438,5027,4940,4941
9439,5027,4941,5028
9440,4942,5028,4941
9441,4943,5029,4942
9442,5029,5028,4942
9443,5029,4943,5030
9444,4944,5030,4943
9445,5030,4944,4946
9446,4946,4944,4945
9447,5031,5030,4947
9448,4947,5030,4946
9449,4947,4948,5031
9450,5032,5031,4948
9451,5033,5032,4949
9452,4948,4949,5032
9453,5034,5033,4953
9454,4953,5033,4949
9455,4953,5035,5034
9456,5036,5034,5035
9457,4952,5037,4953
9458,5035,4953,5037
9459,4950,5038,4952
9460,5037,4952,5038
9461,4950,4951,5038
9462,4951,5039,5038
9463,4951,4724,5039
9464,5040,5039,4724
9465,5041,5040,4725
9466,4724,4725,5040
9467,5042,5041,4726
9468,4725,4726,5041
9469,4726,4727,5042
9470,5042,4727,5043
9471,5044,5043,4728
9472,4727,4728,5043
9473,4728,4729,5044
9474,5045,5044,4729
9475,4729,4897,5045
9476,4897,4898,5045
9477,4861,4862,4954
9478,4863,4954,4862
9479,5046,4910,4969
9480,4911,4969,4910
9481,4969,4970,5047
9482,5048,5047,4970
9483,4970,4971,5048
9484,5049,5048,4971
9485,4971,4979,5049
9486,5050,5049,4979
9487,4979,5051,5050
9488,5052,5050,5051
9489,4978,5053,4979
9490,5051,4979,5053
9491,5053,4978,5054
9492,4973,5054,4978
9493,5055,5054,4975
9494,4974,4975,5054
9495,5055,4975,5056
9496,5056,4975,4976
9497,4977,5057,4976
9498,5056,4976,5057
9499,4977,4931,5057
9500,4932,5057,4931
9501,5057,4932,5058
9502,4933,5058,4932
9503,4934,5059,4933
9504,5058,4933,5059
9505,4936,5060,4935
9506,5061,4935,5060
9507,4937,5062,4936
9508,4936,5062,5060
9509,4938,5026,4937
9510,5062,4937,5026
9511,5048,5063,5047
9512,5064,5047,5063
9513,5048,5049,5063
9514,5063,5049,5065
9515,5049,5050,5065
9516,5066,5065,5050
9517,5050,5052,5066
9518,5067,5066,5052
9519,5052,5062,5067
9520,5026,5067,5062
9521,5027,5068,5026
9522,5067,5026,5068
9523,5028,5069,5027
9524,5027,5069,5068
9525,5029,5070,5028
9526,5069,5028,5070
9527,5030,5071,5029
9528,5029,5071,5070
9529,5030,5031,5071
9530,5072,5071,5031
9531,5073,5072,5032
9532,5031,5032,5072
9533,5074,5073,5033
9534,5033,5073,5032
9535,5075,5074,5034
9536,5074,5033,5034
9537,5034,5036,5075
9538,5046,5075,5036
9539,4860,4861,4955
9540,4954,4955,4861
9541,4859,4860,4956
9542,4955,4956,4860
9543,4956,4957,4859
9544,5076,4859,4957
9545,4957,4958,5076
9546,5077,5076,4958
9547,4958,4959,5077
9548,5078,5077,4959
9549,4959,4960,5078
9550,5079,5078,4960
9551,5080,5081,4963
9552,4963,5081,4962
9553,5082,5083,4963
9554,5080,4963,5083
9555,5082,4963,5084
9556,4963,4964,5084
9557,5084,4964,5085
9558,4965,5085,4964
9559,5085,4965,5086
9560,4966,5086,4965
9561,5086,4966,5087
9562,4967,5087,4966
9563,5087,4967,4914
9564,4913,4914,4967
9565,5068,5088,5067
9566,5066,5067,5088
9567,5069,5089,5068
9568,5088,5068,5089
9569,5070,5090,5069
9570,5089,5069,5090
9571,5090,5070,5091
9572,5091,5070,5071
9573,5091,5071,5073
9574,5072,5073,5071
9575,5065,5066,5089
9576,5088,5089,5066
9577,5063,5065,5090
9578,5089,5090,5065
9579,5063,5090,5064
9580,5091,5064,5090
9581,5092,5087,4915
9582,4915,5087,4914
9583,4915,4916,5092
9584,5092,4916,5093
9585,4916,4917,5093
9586,5093,4917,5094
9587,4917,4918,5094
9588,5095,5094,4918
9589,4918,4919,5095
9590,5000,5095,4919
9591,5064,5091,5074
9592,5073,5074,5091
9593,5095,5000,5096
9594,5001,5096,5000
9595,5002,5097,5001
9596,5096,5001,5097
9597,5098,5099,5004
9598,5003,5004,5099
9599,5098,5004,5100
9600,5100,5004,5005
9601,5100,5005,5101
9602,5006,5101,5005
9603,5007,5102,5006
9604,5101,5006,5102
9605,5008,5103,5007
9606,5102,5007,5103
9607,5009,5104,5008
9608,5104,5103,5008
9609,5104,5009,5105
9610,5009,5010,5105
9611,5105,5010,5106
9612,5011,5106,5010
9613,5107,5106,5012
9614,5011,5012,5106
9615,5108,5107,5013
9616,5012,5013,5107
9617,5108,5013,5109
9618,5014,5109,5013
9619,5109,5014,5110
9620,5015,5110,5014
9621,5111,5110,5016
9622,5015,5016,5110
9623,5111,5016,5112
9624,5017,5112,5016
9625,5112,5017,5113
9626,5018,5113,5017
9627,5019,5114,5018
9628,5113,5018,5114
9629,5019,5020,5114
9630,5020,5115,5114
9631,5020,5021,5115
9632,5116,5115,5021
9633,5021,5022,5116
9634,4988,5116,5022
9635,4987,4988,5023
9636,5022,5023,4988
9637,4986,4987,5024
9638,5023,5024,4987
9639,4986,5024,4985
9640,4985,5024,5025
9641,4892,4893,5025
9642,4985,5025,4893
9643,4984,4985,4894
9644,4893,4894,4985
9645,4983,4984,4895
9646,4894,4895,4984
9647,4732,4983,4896
9648,4896,4983,4895
9649,4730,4896,4729
9650,4897,4729,4896
9651,4732,4896,4731
9652,4730,4731,4896
9653,5044,5045,4899
9654,4900,4899,5045
9655,5043,5044,4901
9656,4901,5044,4899
9657,5043,4901,5117
9658,4902,5117,4901
9659,5117,4902,5118
9660,4903,5118,4902
9661,5118,4903,4905
9662,4904,4905,4903
9663,5119,5118,4906
9664,4905,4906,5118
9665,4906,4907,5119
9666,5120,5119,4907
9667,5121,5120,4908
9668,4908,5120,4907
9669,5122,5121,4909
9670,4908,4909,5121
9671,5035,5122,5036
9672,4909,5036,5122
9673,5036,4909,5046
9674,5046,4909,4910
9675,5116,4988,5123
9676,4989,5123,4988
9677,4990,5124,4989
9678,5123,4989,5124
9679,4991,5125,4990
9680,5125,5124,4990
9681,4992,5126,4991
9682,5126,5125,4991
9683,4993,5127,4992
9684,5126,4992,5127
9685,4994,5128,4993
9686,5128,5127,4993
9687,4995,5129,4994
9688,5128,4994,5129
9689,4995,4996,5129
9690,5130,5129,4996
9691,5130,4996,5131
9692,4999,5131,4996
9693,5131,4999,5132
9694,4998,5132,4999
9695,4997,5133,4998
9696,4998,5133,5132
9697,5115,5116,5134
9698,5123,5134,5116
9699,5124,5135,5123
9700,5135,5134,5123
9701,5125,5136,5124
9702,5135,5124,5136
9703,5126,5137,5125
9704,5125,5137,5136
9705,5127,5138,5126
9706,5137,5126,5138
9707,5138,5127,5139
9708,5128,5139,5127
9709,5129,5140,5128
9710,5128,5140,5139
9711,5140,5129,5141
9712,5130,5141,5129
9713,5141,5130,5142
9714,5131,5142,5130
9715,5142,5131,5143
9716,5132,5143,5131
9717,5143,5132,5144
9718,5133,5144,5132
9719,5145,4858,5146
9720,5146,4858,4857
9721,5146,4857,5076
9722,4859,5076,4857
9723,5037,5147,5035
9724,5122,5035,5147
9725,5038,5148,5037
9726,5147,5037,5148
9727,5039,5149,5038
9728,5148,5038,5149
9729,5039,5040,5149
9730,5150,5149,5040
9731,5151,5150,5041
9732,5040,5041,5150
9733,5152,5151,5042
9734,5041,5042,5151
9735,5117,5152,5043
9736,5043,5152,5042
9737,5051,5060,5052
9738,5062,5052,5060
9739,5061,5053,5055
9740,5055,5053,5054
9741,5061,5055,5059
9742,5059,5055,5056
9743,5057,5058,5056
9744,5059,5056,5058
9745,5059,4934,5061
9746,4935,5061,4934
9747,5153,5146,5077
9748,5076,5077,5146
9749,5077,5078,5153
9750,5154,5153,5078
9751,5155,5154,5079
9752,5078,5079,5154
9753,5080,5156,5081
9754,5155,5081,5156
9755,5083,5157,5080
9756,5156,5080,5157
9757,5157,5083,5158
9758,5159,5158,5083
9759,5160,5159,5082
9760,5083,5082,5159
9761,5160,5082,5161
9762,5082,5084,5161
9763,5161,5084,5162
9764,5085,5162,5084
9765,5162,5085,5163
9766,5086,5163,5085
9767,5163,5086,5092
9768,5087,5092,5086
9769,5092,5093,5163
9770,5164,5163,5093
9771,5093,5094,5164
9772,5165,5164,5094
9773,5094,5095,5165
9774,5096,5165,5095
9775,5003,5099,5002
9776,5097,5002,5099
9777,5115,5134,5114
9778,5114,5134,5135
9779,5114,5135,5113
9780,5136,5113,5135
9781,5147,5166,5122
9782,5166,5121,5122
9783,5148,5167,5147
9784,5147,5167,5166
9785,5149,5168,5148
9786,5167,5148,5168
9787,5168,5149,5151
9788,5150,5151,5149
9789,5169,5168,5152
9790,5151,5152,5168
9791,5118,5169,5117
9792,5117,5169,5152
9793,5113,5136,5112
9794,5137,5112,5136
9795,5118,5119,5169
9796,5119,5170,5169
9797,5137,5138,5112
9798,5111,5112,5138
9799,5139,5171,5138
9800,5111,5138,5171
9801,5140,5172,5139
9802,5171,5139,5172
9803,5141,5173,5140
9804,5172,5140,5173
9805,5173,5141,5174
9806,5174,5141,5142
9807,5174,5142,5175
9808,5143,5175,5142
9809,5175,5143,5176
9810,5176,5143,5144
9811,5177,5178,5144
9812,5176,5144,5178
9813,5179,5180,5177
9814,5178,5177,5180
9815,5180,5179,5181
9816,5145,5181,5179
9817,5146,5153,5145
9818,5181,5145,5153
9819,5182,5181,5154
9820,5154,5181,5153
9821,5156,5182,5155
9822,5154,5155,5182
9823,5157,5183,5156
9824,5156,5183,5182
9825,5183,5157,5184
9826,5158,5184,5157
9827,5184,5158,5185
9828,5158,5186,5185
9829,5158,5159,5186
9830,5187,5186,5159
9831,5101,5187,5160
9832,5159,5160,5187
9833,5101,5160,5100
9834,5161,5100,5160
9835,5162,5098,5161
9836,5100,5161,5098
9837,5101,5102,5187
9838,5103,5187,5102
9839,5186,5187,5104
9840,5103,5104,5187
9841,5162,5163,5188
9842,5164,5188,5163
9843,5162,5188,5098
9844,5099,5098,5188
9845,5185,5186,5105
9846,5104,5105,5186
9847,5185,5105,5189
9848,5189,5105,5106
9849,5190,5189,5107
9850,5106,5107,5189
9851,5174,5108,5173
9852,5109,5173,5108
9853,5110,5172,5109
9854,5173,5109,5172
9855,5111,5171,5110
9856,5172,5110,5171
9857,5183,5180,5182
9858,5181,5182,5180
9859,5174,5190,5108
9860,5107,5108,5190
9861,5184,5185,5191
9862,5189,5191,5185
9863,5189,5190,5191
9864,5190,5192,5191
9865,5190,5174,5192
9866,5175,5192,5174
9867,5169,5170,5168
9868,5167,5168,5170
9869,5183,5184,5193
9870,5191,5193,5184
9871,5192,5175,5194
9872,5175,5176,5194
9873,5180,5183,5178
9874,5193,5178,5183
9875,5178,5193,5176
9876,5194,5176,5193
9877,5192,5194,5191
9878,5193,5191,5194
9879,1014,5195,683
9880,681,683,5195
9881,671,5195,668
9882,668,5195,1014
9883,679,681,671
9884,5195,671,681
9885,1668,1208,1210
9886,1208,5196,1210
9887,1208,1004,5196
9888,1005,5196,1004
9889,1006,1210,1005
9890,1005,1210,5196
9891,2075,2074,1573
9892,1400,1573,2074
9893,1400,2074,1399
9894,1571,1399,2074
9895,1589,1590,2096
9896,2097,2096,1590
9897,2115,2095,2097
9898,2096,2097,2095
9899,1587,1413,1588
9900,1414,1588,1413
9901,1588,1589,1587
9902,1587,1589,2096
9903,1904,1830,1832
9904,5197,1832,1830
9905,1499,1500,1830
9906,5197,1830,1500
9907,1832,5197,1501
9908,1501,5197,1500
9909,2681,2447,2449
9910,5198,2449,2447
9911,2207,5198,2206
9912,2447,2206,5198
9913,2207,2208,5198
9914,2208,2449,5198
9915,3616,3023,3302
9916,2463,3302,3023
9917,2462,2463,2770
9918,3023,2770,2463
9919,3319,2813,2126
9920,2125,2126,2813
9921,3319,2126,3157
9922,2127,3157,2126
9923,2818,2535,2893
9924,2536,2893,2535
9925,2892,2893,2819
9926,5199,2819,2893
9927,2537,5199,2536
9928,5199,2893,2536
9929,2538,2819,2537
9930,5199,2537,2819
9931,3715,3096,2962
9932,2942,2962,3096
9933,2944,3098,2961
9934,3717,2961,3098
9935,3350,3339,3172
9936,3171,3172,3339
9937,3351,3350,3173
9938,3350,3172,3173
9939,3351,3173,3175
9940,3174,3175,3173
9941,4026,3713,4027
9942,4027,3713,5200
9943,3095,3096,3713
9944,3096,5200,3713
9945,4027,5200,3715
9946,5200,3096,3715
9947,3056,3761,3055
9948,3762,3055,3761
9949,3057,3760,3056
9950,3761,3056,3760
9951,4091,3823,3825
9952,5201,3825,3823
9953,3538,5201,3537
9954,3823,3537,5201
9955,3539,3825,3538
9956,5201,3538,3825
9957,3900,3676,5202
9958,4096,5202,3676
9959,5202,4096,4094
9960,4095,4094,4096
9961,5203,5202,4093
9962,4094,4093,5202
9963,4092,3900,5203
9964,5202,5203,3900
9965,3821,3822,5203
9966,4092,5203,3822
9967,3821,5203,4122
9968,4093,4122,5203
9969,3490,4225,3489
9970,4225,3919,3489
9971,3491,3920,3490
9972,4225,3490,3920
9973,3920,3491,3493
9974,3492,3493,3491
9975,4188,3996,3750
9976,3749,3750,3996
9977,4190,4188,3751
9978,3750,3751,4188
9979,4190,3751,3753
9980,3752,3753,3751
9981,4367,4124,4126
9982,5204,4126,4124
9983,4124,3862,5204
9984,3863,5204,3862
9985,3864,4126,3863
9986,5204,3863,4126
9987,4731,4397,4399
9988,4399,4397,5205
9989,4397,4169,5205
9990,4168,5205,4169
9991,4170,4399,4168
9992,5205,4168,4399
9993,4639,4487,4488
9994,5206,4488,4487
9995,4376,5206,4375
9996,4487,4375,5206
9997,4376,4377,5206
9998,4488,5206,4377
9999,4661,4623,4660
10000,4624,4660,4623
10001,4661,4620,4623
10002,4622,4623,4620
10003,4968,4851,5207
10004,4852,5207,4851
10005,4853,4928,4852
10006,4928,5207,4852
10007,4968,5207,4929
10008,4928,4929,5207
10009,5045,4898,4900
10010,4900,4898,5208
10011,4898,4823,5208
10012,4823,4824,5208
10013,4825,4900,4824
10014,5208,4824,4900
10015,5054,4973,4974
10016,4973,4972,4974
10017,5053,5061,5051
10018,5060,5051,5061
10019,5047,5064,5075
10020,5074,5075,5064
10021,5075,5046,5047
10022,4969,5047,5046
10023,5081,5155,5209
10024,5079,5209,5155
10025,4960,4961,5079
10026,5209,5079,4961
10027,5081,5209,4962
10028,4961,4962,5209
10029,5166,5210,5121
10030,5120,5121,5210
10031,5167,5170,5166
10032,5210,5166,5170
10033,5119,5120,5170
10034,5120,5210,5170
10035,5211,5177,5133
10036,5144,5133,5177
10037,5212,5179,5211
10038,5211,5179,5177
10039,4858,5145,5212
10040,5179,5212,5145
10041,4856,5211,4997
10042,5133,4997,5211
10043,4716,5212,4856
10044,5211,4856,5212
10045,4717,4858,4716
10046,5212,4716,4858
10047,5097,5213,5096
10048,5165,5096,5213
10049,5097,5099,5213
10050,5188,5213,5099
10051,5164,5165,5188
10052,5213,5188,5165
10053,3302,2463,3025
10054,2249,3025,2463
10055,3347,3336,3338
10056,3337,3338,3336
10057,3348,3349,3728
10058,3728,3349,3550
10059,2112,2113,5214
10060,2113,2128,5214
10061,3157,2127,2128
10062,5214,2128,2127
10063,2112,5214,2111
10064,2127,2111,5214
10065,1548,2251,1547
10066,2772,1547,2251
10067,3025,2249,2772
10068,1547,2772,2249
10069,5215,3730,4163
10070,3975,4163,3730
10071,3728,3550,3973
10072,5215,3973,3550
10073,3550,3551,5215
10074,3730,5215,3551
10075,3973,5215,5216
10076,4163,5216,5215
10077,4162,4160,4163
10078,4163,4160,5216
10079,3973,5216,3972
10080,4160,3972,5216
10081,621,619,311
10082,312,311,619
10083,5217,5218,5219
10084,5220,5219,5218
10085,5221,5222,5220
10086,5219,5220,5222
10087,5221,5223,5222
10088,5224,5222,5223
10089,5225,5226,5223
10090,5224,5223,5226
10091,5226,5225,5227
10092,5227,5225,5228
10093,5228,5229,5227
10094,5230,5227,5229
10095,5231,5232,5229
10096,5232,5230,5229
10097,5232,5231,5233
10098,5234,5233,5231
10099,5233,5234,5235
10100,5236,5235,5234
10101,5235,5236,5237
10102,5238,5237,5236
10103,5239,5237,5240
10104,5237,5238,5240
10105,5241,5239,5242
10106,5240,5242,5239
10107,5241,5242,5243
10108,5244,5243,5242
10109,5244,5242,5245
10110,5246,5245,5242
10111,5245,5246,5247
10112,5248,5247,5246
10113,5249,5247,5250
10114,5248,5250,5247
10115,5250,5251,5249
10116,5252,5249,5251
10117,5249,5252,5253
10118,5254,5253,5252
10119,5253,5254,5255
10120,5254,5256,5255
10121,5257,5255,5258
10122,5258,5255,5256
10123,5259,5257,5260
10124,5258,5260,5257
10125,5261,5259,5262
10126,5262,5259,5260
10127,5263,5261,5264
10128,5261,5262,5264
10129,5265,5263,5266
10130,5264,5266,5263
10131,5266,5267,5265
10132,5268,5265,5267
10133,5267,5269,5268
10134,5269,5270,5268
10135,5269,5271,5270
10136,5272,5270,5271
10137,5272,5271,5273
10138,5274,5273,5271
10139,5275,5273,5276
10140,5274,5276,5273
10141,5275,5276,5277
10142,5278,5277,5276
10143,5279,5277,5280
10144,5278,5280,5277
10145,5279,5280,5281
10146,5282,5281,5280
10147,5283,5281,5284
10148,5282,5284,5281
10149,5283,5284,5285
10150,5285,5284,5286
10151,5285,5286,5287
10152,5288,5287,5286
10153,5287,5288,5289
10154,5290,5289,5288
10155,5291,5292,5290
10156,5289,5290,5292
10157,5292,5291,5293
10158,5294,5293,5291
10159,5295,5293,5296
10160,5294,5296,5293
10161,5297,5295,5298
10162,5296,5298,5295
10163,5299,5297,5300
10164,5300,5297,5298
10165,5301,5299,5302
10166,5300,5302,5299
10167,5303,5301,5304
10168,5302,5304,5301
10169,5305,5303,5306
10170,5304,5306,5303
10171,5307,5305,5308
10172,5306,5308,5305
10173,5309,5310,5308
10174,5307,5308,5310
10175,5310,5309,5311
10176,5312,5311,5309
10177,5311,5312,5313
10178,5314,5313,5312
10179,5315,5313,5316
10180,5314,5316,5313
10181,5317,5315,5318
10182,5316,5318,5315
10183,5319,5317,5320
10184,5318,5320,5317
10185,5320,5321,5319
10186,5322,5319,5321
10187,5321,5323,5322
10188,5324,5322,5323
10189,5323,5325,5324
10190,5326,5324,5325
10191,5327,5326,5328
10192,5325,5328,5326
10193,5327,5328,5329
10194,5330,5329,5328
10195,5331,5329,5332
10196,5330,5332,5329
10197,5333,5331,5334
10198,5334,5331,5332
10199,5335,5333,5336
10200,5334,5336,5333
10201,5333,5335,5337
10202,5335,5338,5337
10203,5339,5340,5341
10204,5341,5340,5342
10205,5343,5342,5344
10206,5344,5342,5340
10207,5344,5345,5343
10208,5346,5343,5345
10209,5345,5347,5346
10210,5348,5346,5347
10211,5347,5349,5348
10212,5348,5349,5350
10213,5349,5351,5350
10214,5350,5351,5352
10215,5351,5353,5352
10216,5354,5352,5353
10217,5353,5355,5354
10218,5356,5354,5355
10219,5355,5357,5356
10220,5358,5356,5357
10221,5357,5359,5358
10222,5360,5358,5359
10223,5359,5361,5360
10224,5362,5360,5361
10225,5363,5362,5364
10226,5361,5364,5362
10227,5364,5365,5363
10228,5366,5363,5365
10229,5367,5366,5368
10230,5368,5366,5365
10231,5368,5369,5367
10232,5370,5367,5369
10233,5371,5370,5372
10234,5369,5372,5370
10235,5373,5371,5374
10236,5372,5374,5371
10237,5375,5373,5376
10238,5374,5376,5373
10239,5377,5375,5378
10240,5376,5378,5375
10241,5379,5377,5380
10242,5378,5380,5377
10243,5218,5379,5220
10244,5380,5220,5379
10245,5381,5382,676
10246,677,676,5382
10247,5383,680,5382
10248,677,5382,680
10249,680,5383,682
10250,5384,682,5383
10251,682,5384,684
10252,5385,684,5384
10253,684,5385,686
10254,5386,686,5385
10255,686,5386,688
10256,5387,688,5386
10257,688,5387,690
10258,5388,690,5387
10259,690,5388,692
10260,5389,692,5388
10261,692,5389,694
10262,5390,694,5389
10263,5391,696,5390
10264,694,5390,696
10265,5392,699,5391
10266,696,5391,699
10267,699,5392,700
10268,5393,700,5392
10269,700,5393,702
10270,5394,702,5393
10271,5395,704,5394
10272,704,702,5394
10273,5396,706,5395
10274,704,5395,706
10275,5397,708,5396
10276,708,706,5396
10277,708,5397,711
10278,5398,711,5397
10279,711,5398,713
10280,713,5398,5399
10281,715,713,5400
10282,5399,5400,713
10283,716,715,5401
10284,5400,5401,715
10285,5401,5400,5402
10286,5403,5402,5400
10287,5402,5403,5404
10288,5405,5404,5403
10289,5404,5405,5406
10290,5407,5406,5405
10291,5408,5409,5407
10292,5407,5409,5406
10293,5409,5408,5410
10294,5411,5410,5408
10295,5410,5411,5412
10296,5413,5412,5411
10297,5414,5415,5413
10298,5412,5413,5415
10299,5416,5417,5414
10300,5415,5414,5417
10301,5417,5416,5418
10302,5419,5418,5416
10303,5420,5421,5419
10304,5418,5419,5421
10305,5421,5420,5422
10306,5423,5422,5420
10307,5422,5423,5424
10308,5425,5424,5423
10309,5424,5425,5426
10310,5426,5425,5427
10311,5426,5427,5428
10312,5429,5428,5427
10313,5428,5429,5430
10314,5429,5431,5430
10315,5430,5431,5432
10316,5432,5431,5433
10317,5432,5433,5434
10318,5435,5434,5433
10319,5434,5435,5436
10320,5435,5437,5436
10321,5436,5437,5438
10322,5439,5438,5437
10323,5438,5439,5440
10324,5441,5440,5439
10325,5440,5441,5442
10326,5443,5442,5441
10327,5442,5443,5444
10328,5445,5444,5443
10329,5444,5445,5446
10330,5447,5446,5445
10331,5448,5446,5449
10332,5447,5449,5446
10333,5450,5448,5451
10334,5449,5451,5448
10335,5452,5450,5453
10336,5451,5453,5450
10337,5454,5452,5455
10338,5453,5455,5452
10339,5456,5457,5455
10340,5455,5457,5454
10341,5458,5459,5456
10342,5457,5456,5459
10343,5458,5460,5459
10344,5461,5459,5460
10345,5461,5460,5462
10346,5463,5462,5460
10347,5462,5463,5464
10348,5464,5463,5465
10349,5464,5465,5466
10350,5467,5466,5465
10351,5466,5467,5468
10352,5469,5468,5467
10353,5468,5469,5470
10354,5471,5470,5469
10355,5470,5471,5472
10356,5473,5472,5471
10357,5472,5473,5474
10358,5475,5474,5473
10359,5474,5475,5476
10360,5477,5476,5475
10361,5476,5477,5478
10362,5479,5478,5477
10363,5480,5481,5479
10364,5478,5479,5481
10365,5481,5480,5482
10366,5483,5482,5480
10367,5482,5483,5484
10368,5485,5484,5483
10369,5484,5485,5486
10370,5485,5487,5486
10371,5486,5487,5488
10372,5489,5488,5487
10373,5490,5491,5489
10374,5491,5488,5489
10375,5491,5490,5492
10376,5493,5492,5490
10377,5494,5495,5493
10378,5492,5493,5495
10379,5495,5494,5496
10380,5497,5496,5494
10381,5496,5497,5498
10382,5499,5498,5497
10383,5500,5501,5499
10384,5498,5499,5501
10385,5501,5500,5502
10386,5503,5502,5500
10387,5504,5505,5503
10388,5503,5505,5502
10389,5505,5504,5506
10390,5507,5506,5504
10391,5506,5507,5508
10392,5509,5508,5507
10393,5508,5509,5510
10394,5510,5509,5511
10395,5510,5511,5512
10396,5513,5512,5511
10397,5512,5513,5514
10398,5515,5514,5513
10399,5514,5515,5516
10400,5517,5516,5515
10401,5516,5517,5518
10402,5518,5517,5519
10403,5518,5519,5520
10404,5521,5520,5519
10405,5520,5521,5522
10406,5523,5522,5521
10407,5522,5523,5524
10408,5524,5523,5525
10409,5344,5526,5525
10410,5524,5525,5526
10411,5339,5526,5340
10412,5340,5526,5344
10413,5527,5337,5528
10414,5528,5337,5338
10415,5527,5528,5529
10416,5530,5529,5528
10417,5529,5530,5531
10418,5532,5531,5530
10419,5531,5532,5533
10420,5534,5533,5532
10421,5533,5534,5535
10422,5535,5534,5536
10423,5537,5535,5538
10424,5538,5535,5536
10425,5539,5537,5540
10426,5538,5540,5537
10427,5541,5539,5542
10428,5540,5542,5539
10429,5543,5541,5544
10430,5541,5542,5544
10431,5545,5543,5546
10432,5544,5546,5543
10433,5545,5546,5547
10434,5548,5547,5546
10435,5549,5550,5548
10436,5547,5548,5550
10437,5550,5549,5551
10438,5552,5551,5549
10439,5553,5554,5552
10440,5551,5552,5554
10441,5555,5556,5553
10442,5554,5553,5556
10443,5556,5555,5557
10444,5558,5557,5555
10445,5559,5560,5558
10446,5557,5558,5560
10447,5560,5559,5561
10448,5562,5561,5559
10449,5563,5564,5562
10450,5561,5562,5564
10451,5565,5566,5563
10452,5563,5566,5564
10453,5566,5565,5567
10454,5568,5567,5565
10455,5567,5568,5569
10456,5570,5569,5568
10457,5571,5569,5572
10458,5572,5569,5570
10459,5573,5571,5574
10460,5572,5574,5571
10461,5573,5574,5575
10462,5576,5575,5574
10463,5575,5576,5577
10464,5578,5577,5576
10465,5579,5580,5578
10466,5577,5578,5580
10467,5580,5579,5581
10468,5582,5581,5579
10469,5581,5582,5583
10470,5584,5583,5582
10471,5585,5586,5584
10472,5583,5584,5586
10473,5587,5588,5585
10474,5585,5588,5586
10475,5589,5590,5587
10476,5588,5587,5590
10477,5590,5589,5591
10478,5592,5591,5589
10479,5591,5592,5593
10480,5594,5593,5592
10481,5593,5594,5595
10482,5596,5595,5594
10483,5382,5381,5596
10484,5595,5596,5381
10485,5597,5221,5380
10486,5220,5380,5221
10487,5597,5598,5221
10488,5223,5221,5598
10489,5223,5598,5225
10490,5599,5225,5598
10491,5600,5228,5599
10492,5599,5228,5225
10493,5229,5601,5231
10494,5602,5231,5601
10495,5231,5602,5234
10496,5603,5234,5602
10497,5236,5234,5604
10498,5603,5604,5234
10499,5236,5604,5238
10500,5238,5604,5605
10501,5240,5238,5606
10502,5605,5606,5238
10503,5242,5240,5246
10504,5606,5246,5240
10505,5228,5607,5229
10506,5601,5229,5607
10507,5608,5607,5600
10508,5607,5228,5600
10509,5246,5606,5248
10510,5609,5248,5606
10511,5250,5248,5610
10512,5609,5610,5248
10513,5251,5250,5611
10514,5610,5611,5250
10515,5612,5613,5611
10516,5251,5611,5613
10517,5252,5251,5614
10518,5613,5614,5251
10519,5252,5614,5254
10520,5615,5254,5614
10521,5616,5256,5615
10522,5254,5615,5256
10523,5258,5256,5617
10524,5616,5617,5256
10525,5260,5258,5618
10526,5258,5617,5618
10527,5618,5619,5260
10528,5260,5619,5262
10529,5619,5620,5262
10530,5264,5262,5620
10531,5620,5621,5264
10532,5266,5264,5621
10533,5267,5266,5622
10534,5621,5622,5266
10535,5269,5267,5623
10536,5622,5623,5267
10537,5271,5269,5624
10538,5623,5624,5269
10539,5274,5271,5625
10540,5624,5625,5271
10541,5625,5626,5274
10542,5276,5274,5626
10543,5626,5280,5276
10544,5278,5276,5280
10545,5626,5627,5280
10546,5282,5280,5627
10547,5282,5627,5284
10548,5628,5284,5627
10549,5629,5286,5628
10550,5284,5628,5286
10551,5286,5629,5288
10552,5288,5629,5630
10553,5631,5290,5630
10554,5630,5290,5288
10555,5632,5291,5631
10556,5290,5631,5291
10557,5291,5632,5294
10558,5633,5294,5632
10559,5634,5296,5633
10560,5296,5294,5633
10561,5634,5635,5296
10562,5298,5296,5635
10563,5300,5298,5636
10564,5635,5636,5298
10565,5636,5637,5300
10566,5302,5300,5637
10567,5304,5302,5638
10568,5637,5638,5302
10569,5304,5638,5306
10570,5639,5306,5638
10571,5306,5639,5308
10572,5640,5308,5639
10573,5641,5309,5640
10574,5308,5640,5309
10575,5642,5312,5641
10576,5309,5641,5312
10577,5642,5316,5312
10578,5314,5312,5316
10579,5642,5643,5316
10580,5318,5316,5643
10581,5320,5318,5644
10582,5643,5644,5318
10583,5321,5320,5645
10584,5645,5320,5644
10585,5645,5646,5321
10586,5323,5321,5646
10587,5646,5647,5323
10588,5323,5647,5325
10589,5328,5325,5648
10590,5325,5647,5648
10591,5328,5648,5330
10592,5649,5330,5648
10593,5330,5649,5332
10594,5332,5649,5650
10595,5334,5332,5651
10596,5650,5651,5332
10597,5652,5336,5651
10598,5334,5651,5336
10599,5653,5654,5652
10600,5654,5336,5652
10601,5654,5655,5336
10602,5335,5336,5655
10603,5655,5656,5335
10604,5656,5338,5335
10605,5657,5528,5656
10606,5338,5656,5528
10607,5528,5657,5530
10608,5658,5530,5657
10609,5530,5658,5532
10610,5532,5658,5659
10611,5660,5534,5659
10612,5532,5659,5534
10613,5534,5660,5536
10614,5536,5660,5538
10615,5400,5399,5403
10616,5398,5403,5399
10617,5403,5398,5405
10618,5405,5398,5397
10619,5661,5407,5397
10620,5405,5397,5407
10621,5407,5661,5408
10622,5662,5408,5661
10623,5408,5662,5411
10624,5411,5662,5663
10625,5411,5663,5413
10626,5664,5413,5663
10627,5413,5664,5414
10628,5665,5414,5664
10629,5414,5665,5416
10630,5666,5416,5665
10631,5416,5666,5419
10632,5419,5666,5667
10633,5419,5667,5420
10634,5668,5420,5667
10635,5420,5668,5423
10636,5669,5423,5668
10637,5423,5669,5425
10638,5670,5425,5669
10639,5425,5670,5427
10640,5671,5427,5670
10641,5427,5671,5429
10642,5672,5429,5671
10643,5429,5672,5431
10644,5673,5431,5672
10645,5674,5433,5673
10646,5431,5673,5433
10647,5433,5674,5435
10648,5675,5435,5674
10649,5435,5675,5437
10650,5676,5437,5675
10651,5439,5437,5677
10652,5676,5677,5437
10653,5441,5439,5678
10654,5677,5678,5439
10655,5441,5678,5443
10656,5679,5443,5678
10657,5445,5443,5680
10658,5679,5680,5443
10659,5447,5445,5681
10660,5680,5681,5445
10661,5449,5447,5682
10662,5681,5682,5447
10663,5451,5449,5683
10664,5682,5683,5449
10665,5453,5451,5684
10666,5683,5684,5451
10667,5455,5453,5685
10668,5684,5685,5453
10669,5456,5455,5686
10670,5686,5455,5685
10671,5456,5686,5458
10672,5687,5458,5686
10673,5460,5688,5463
10674,5689,5463,5688
10675,5463,5689,5465
10676,5465,5689,5690
10677,5465,5690,5467
10678,5691,5467,5690
10679,5467,5691,5469
10680,5692,5469,5691
10681,5469,5692,5471
10682,5693,5471,5692
10683,5471,5693,5473
10684,5694,5473,5693
10685,5473,5694,5475
10686,5695,5475,5694
10687,5475,5695,5477
10688,5696,5477,5695
10689,5477,5696,5479
10690,5697,5479,5696
10691,5698,5480,5697
10692,5697,5480,5479
10693,5699,5483,5698
10694,5480,5698,5483
10695,5483,5699,5485
10696,5700,5485,5699
10697,5485,5700,5487
10698,5701,5487,5700
10699,5487,5701,5489
10700,5702,5489,5701
10701,5489,5702,5490
10702,5703,5490,5702
10703,5490,5703,5493
10704,5704,5493,5703
10705,5493,5704,5494
10706,5705,5494,5704
10707,5494,5705,5497
10708,5706,5497,5705
10709,5497,5706,5499
10710,5707,5499,5706
10711,5499,5707,5500
10712,5500,5707,5708
10713,5500,5708,5503
10714,5709,5503,5708
10715,5503,5709,5504
10716,5710,5504,5709
10717,5504,5710,5507
10718,5711,5507,5710
10719,5507,5711,5509
10720,5509,5711,5712
10721,5509,5712,5511
10722,5713,5511,5712
10723,5511,5713,5513
10724,5714,5513,5713
10725,5513,5714,5515
10726,5715,5515,5714
10727,5515,5715,5517
10728,5716,5517,5715
10729,5517,5716,5519
10730,5717,5519,5716
10731,5519,5717,5521
10732,5521,5717,5718
10733,5521,5718,5523
10734,5719,5523,5718
10735,5523,5719,5525
10736,5720,5525,5719
10737,5525,5720,5344
10738,5345,5344,5720
10739,5458,5721,5460
10740,5688,5460,5721
10741,5458,5687,5721
10742,5722,5721,5687
10743,5540,5538,5723
10744,5660,5723,5538
10745,5723,5724,5540
10746,5542,5540,5724
10747,5544,5542,5725
10748,5724,5725,5542
10749,5725,5726,5544
10750,5546,5544,5726
10751,5727,5548,5726
10752,5546,5726,5548
10753,5728,5549,5727
10754,5548,5727,5549
10755,5549,5728,5552
10756,5729,5552,5728
10757,5730,5553,5729
10758,5552,5729,5553
10759,5553,5730,5555
10760,5731,5555,5730
10761,5555,5731,5558
10762,5732,5558,5731
10763,5733,5559,5732
10764,5558,5732,5559
10765,5734,5562,5733
10766,5733,5562,5559
10767,5735,5563,5734
10768,5562,5734,5563
10769,5736,5565,5735
10770,5565,5563,5735
10771,5565,5736,5568
10772,5737,5568,5736
10773,5570,5568,5738
10774,5737,5738,5568
10775,5572,5570,5739
10776,5739,5570,5738
10777,5574,5572,5740
10778,5740,5572,5739
10779,5574,5740,5576
10780,5741,5576,5740
10781,5576,5741,5578
10782,5742,5578,5741
10783,5578,5742,5579
10784,5743,5579,5742
10785,5744,5582,5743
10786,5579,5743,5582
10787,5582,5744,5584
10788,5745,5584,5744
10789,5584,5745,5585
10790,5746,5585,5745
10791,5747,5587,5746
10792,5585,5746,5587
10793,5748,5589,5747
10794,5589,5587,5747
10795,5589,5748,5592
10796,5749,5592,5748
10797,5750,5594,5749
10798,5592,5749,5594
10799,5751,5596,5750
10800,5594,5750,5596
10801,5383,5382,5751
10802,5596,5751,5382
10803,5723,5660,5658
10804,5659,5658,5660
10805,5658,5752,5723
10806,5724,5723,5752
10807,5725,5724,5753
10808,5752,5753,5724
10809,5725,5753,5726
10810,5754,5726,5753
10811,5726,5754,5727
10812,5755,5727,5754
10813,5727,5755,5728
10814,5756,5728,5755
10815,5757,5729,5756
10816,5728,5756,5729
10817,5729,5757,5730
10818,5758,5730,5757
10819,5759,5731,5758
10820,5730,5758,5731
10821,5760,5732,5759
10822,5731,5759,5732
10823,5761,5733,5760
10824,5732,5760,5733
10825,5733,5761,5734
10826,5762,5734,5761
10827,5763,5735,5762
10828,5734,5762,5735
10829,5735,5763,5736
10830,5736,5763,5764
10831,5737,5736,5765
10832,5764,5765,5736
10833,5738,5737,5766
10834,5765,5766,5737
10835,5739,5738,5767
10836,5766,5767,5738
10837,5768,5740,5767
10838,5739,5767,5740
10839,5768,5769,5740
10840,5769,5741,5740
10841,5770,5742,5769
10842,5741,5769,5742
10843,5771,5743,5770
10844,5770,5743,5742
10845,5743,5771,5744
10846,5772,5744,5771
10847,5744,5772,5745
10848,5773,5745,5772
10849,5745,5773,5746
10850,5774,5746,5773
10851,5746,5774,5747
10852,5775,5747,5774
10853,5747,5775,5748
10854,5776,5748,5775
10855,5777,5749,5776
10856,5748,5776,5749
10857,5778,5750,5777
10858,5749,5777,5750
10859,5779,5751,5778
10860,5750,5778,5751
10861,5383,5751,5780
10862,5779,5780,5751
10863,5383,5780,5384
10864,5384,5780,5781
10865,5384,5781,5385
10866,5782,5385,5781
10867,5385,5782,5386
10868,5783,5386,5782
10869,5386,5783,5387
10870,5784,5387,5783
10871,5387,5784,5388
10872,5785,5388,5784
10873,5388,5785,5389
10874,5786,5389,5785
10875,5787,5390,5786
10876,5390,5389,5786
10877,5788,5391,5787
10878,5390,5787,5391
10879,5391,5788,5392
10880,5789,5392,5788
10881,5790,5393,5789
10882,5392,5789,5393
10883,5393,5790,5394
10884,5791,5394,5790
10885,5394,5791,5395
10886,5792,5395,5791
10887,5793,5396,5792
10888,5792,5396,5395
10889,5397,5396,5661
10890,5793,5661,5396
10891,5720,5794,5345
10892,5347,5345,5794
10893,5349,5347,5795
10894,5794,5795,5347
10895,5795,5796,5349
10896,5349,5796,5351
10897,5796,5797,5351
10898,5353,5351,5797
10899,5797,5798,5353
10900,5355,5353,5798
10901,5357,5355,5799
10902,5798,5799,5355
10903,5799,5800,5357
10904,5359,5357,5800
10905,5800,5801,5359
10906,5361,5359,5801
10907,5364,5361,5802
10908,5801,5802,5361
10909,5802,5803,5364
10910,5365,5364,5803
10911,5368,5365,5804
10912,5803,5804,5365
10913,5804,5805,5368
10914,5368,5805,5369
10915,5372,5369,5806
10916,5805,5806,5369
10917,5374,5372,5807
10918,5807,5372,5806
10919,5376,5374,5808
10920,5807,5808,5374
10921,5378,5376,5809
10922,5808,5809,5376
10923,5597,5380,5809
10924,5378,5809,5380
10925,5606,5605,5609
10926,5810,5609,5605
10927,5610,5609,5811
10928,5810,5811,5609
10929,5611,5610,5812
10930,5812,5610,5811
10931,5812,5813,5611
10932,5611,5813,5612
10933,5814,5612,5815
10934,5813,5815,5612
10935,5814,5816,5612
10936,5613,5612,5816
10937,5614,5613,5817
10938,5817,5613,5816
10939,5614,5817,5615
10940,5818,5615,5817
10941,5616,5615,5819
10942,5818,5819,5615
10943,5617,5616,5820
10944,5820,5616,5819
10945,5618,5617,5821
10946,5820,5821,5617
10947,5620,5619,5822
10948,5823,5822,5619
10949,5822,5824,5620
10950,5621,5620,5824
10951,5622,5621,5825
10952,5824,5825,5621
10953,5623,5622,5826
10954,5825,5826,5622
10955,5624,5623,5827
10956,5826,5827,5623
10957,5827,5828,5624
10958,5625,5624,5828
10959,5626,5625,5829
10960,5625,5828,5829
10961,5626,5829,5627
10962,5830,5627,5829
10963,5831,5628,5830
10964,5627,5830,5628
10965,5628,5831,5629
10966,5629,5831,5832
10967,5631,5630,5832
10968,5629,5832,5630
10969,5833,5632,5832
10970,5631,5832,5632
10971,5833,5834,5632
10972,5633,5632,5834
10973,5633,5834,5634
10974,5835,5634,5834
10975,5634,5835,5635
10976,5836,5635,5835
10977,5636,5635,5837
10978,5836,5837,5635
10979,5637,5636,5838
10980,5837,5838,5636
10981,5637,5838,5638
10982,5839,5638,5838
10983,5638,5839,5639
10984,5840,5639,5839
10985,5840,5841,5639
10986,5639,5841,5640
10987,5641,5640,5842
10988,5842,5640,5841
10989,5642,5641,5843
10990,5842,5843,5641
10991,5643,5642,5844
10992,5843,5844,5642
10993,5644,5643,5845
10994,5844,5845,5643
10995,5645,5644,5846
10996,5845,5846,5644
10997,5646,5645,5847
10998,5846,5847,5645
10999,5847,5848,5646
11000,5647,5646,5848
11001,5849,5648,5848
11002,5647,5848,5648
11003,5648,5849,5649
11004,5850,5649,5849
11005,5851,5650,5850
11006,5649,5850,5650
11007,5650,5851,5651
11008,5852,5651,5851
11009,5853,5652,5852
11010,5852,5652,5651
11011,5854,5653,5853
11012,5853,5653,5652
11013,5855,5856,5854
11014,5653,5854,5856
11015,5856,5857,5653
11016,5654,5653,5857
11017,5857,5858,5654
11018,5655,5654,5858
11019,5858,5859,5655
11020,5656,5655,5859
11021,5656,5859,5657
11022,5860,5657,5859
11023,5658,5657,5752
11024,5657,5860,5752
11025,5618,5861,5619
11026,5823,5619,5861
11027,5618,5821,5861
11028,5862,5861,5821
11029,5719,5863,5720
11030,5794,5720,5863
11031,5795,5794,5864
11032,5863,5864,5794
11033,5864,5865,5795
11034,5796,5795,5865
11035,5865,5866,5796
11036,5797,5796,5866
11037,5866,5867,5797
11038,5798,5797,5867
11039,5867,5868,5798
11040,5799,5798,5868
11041,5800,5799,5869
11042,5868,5869,5799
11043,5869,5870,5800
11044,5801,5800,5870
11045,5870,5871,5801
11046,5802,5801,5871
11047,5803,5802,5872
11048,5871,5872,5802
11049,5872,5873,5803
11050,5803,5873,5804
11051,5805,5804,5874
11052,5873,5874,5804
11053,5806,5805,5875
11054,5874,5875,5805
11055,5875,5876,5806
11056,5807,5806,5876
11057,5808,5807,5877
11058,5876,5877,5807
11059,5809,5808,5878
11060,5877,5878,5808
11061,5597,5809,5879
11062,5878,5879,5809
11063,5597,5879,5598
11064,5880,5598,5879
11065,5598,5880,5599
11066,5880,5881,5599
11067,5599,5881,5600
11068,5600,5881,5882
11069,5600,5882,5608
11070,5883,5608,5882
11071,5884,5885,5883
11072,5883,5885,5608
11073,5607,5608,5886
11074,5885,5886,5608
11075,5601,5607,5887
11076,5886,5887,5607
11077,5602,5601,5888
11078,5887,5888,5601
11079,5603,5602,5889
11080,5889,5602,5888
11081,5603,5889,5604
11082,5890,5604,5889
11083,5810,5605,5890
11084,5604,5890,5605
11085,5661,5793,5662
11086,5891,5662,5793
11087,5662,5891,5663
11088,5892,5663,5891
11089,5663,5892,5664
11090,5893,5664,5892
11091,5664,5893,5665
11092,5894,5665,5893
11093,5895,5666,5894
11094,5665,5894,5666
11095,5666,5895,5667
11096,5896,5667,5895
11097,5667,5896,5668
11098,5897,5668,5896
11099,5668,5897,5669
11100,5898,5669,5897
11101,5669,5898,5670
11102,5899,5670,5898
11103,5670,5899,5671
11104,5900,5671,5899
11105,5671,5900,5672
11106,5901,5672,5900
11107,5902,5673,5901
11108,5672,5901,5673
11109,5903,5674,5902
11110,5673,5902,5674
11111,5903,5904,5674
11112,5674,5904,5675
11113,5904,5905,5675
11114,5905,5676,5675
11115,5677,5676,5906
11116,5676,5905,5906
11117,5678,5677,5907
11118,5906,5907,5677
11119,5679,5678,5908
11120,5907,5908,5678
11121,5680,5679,5909
11122,5908,5909,5679
11123,5681,5680,5910
11124,5680,5909,5910
11125,5682,5681,5911
11126,5910,5911,5681
11127,5683,5682,5912
11128,5682,5911,5912
11129,5684,5683,5913
11130,5913,5683,5912
11131,5685,5684,5914
11132,5913,5914,5684
11133,5685,5914,5686
11134,5686,5914,5915
11135,5686,5915,5687
11136,5916,5687,5915
11137,5687,5916,5722
11138,5917,5722,5916
11139,5722,5917,5918
11140,5919,5918,5917
11141,5721,5722,5920
11142,5918,5920,5722
11143,5688,5721,5921
11144,5920,5921,5721
11145,5688,5921,5689
11146,5922,5689,5921
11147,5689,5922,5690
11148,5923,5690,5922
11149,5690,5923,5691
11150,5691,5923,5924
11151,5691,5924,5692
11152,5692,5924,5925
11153,5692,5925,5693
11154,5693,5925,5926
11155,5693,5926,5694
11156,5694,5926,5927
11157,5694,5927,5695
11158,5928,5695,5927
11159,5695,5928,5696
11160,5929,5696,5928
11161,5930,5697,5929
11162,5696,5929,5697
11163,5697,5930,5698
11164,5931,5698,5930
11165,5932,5699,5931
11166,5698,5931,5699
11167,5933,5700,5932
11168,5699,5932,5700
11169,5700,5933,5701
11170,5934,5701,5933
11171,5701,5934,5702
11172,5935,5702,5934
11173,5702,5935,5703
11174,5936,5703,5935
11175,5703,5936,5704
11176,5937,5704,5936
11177,5704,5937,5705
11178,5938,5705,5937
11179,5705,5938,5706
11180,5939,5706,5938
11181,5706,5939,5707
11182,5707,5939,5940
11183,5707,5940,5708
11184,5941,5708,5940
11185,5708,5941,5709
11186,5942,5709,5941
11187,5709,5942,5710
11188,5943,5710,5942
11189,5710,5943,5711
11190,5944,5711,5943
11191,5711,5944,5712
11192,5945,5712,5944
11193,5712,5945,5713
11194,5713,5945,5946
11195,5713,5946,5714
11196,5947,5714,5946
11197,5714,5947,5715
11198,5948,5715,5947
11199,5715,5948,5716
11200,5949,5716,5948
11201,5716,5949,5717
11202,5950,5717,5949
11203,5864,5718,5950
11204,5717,5950,5718
11205,5719,5718,5863
11206,5864,5863,5718
11207,5753,5752,5951
11208,5860,5951,5752
11209,5952,5754,5951
11210,5753,5951,5754
11211,5953,5755,5952
11212,5755,5754,5952
11213,5756,5755,5954
11214,5953,5954,5755
11215,5756,5954,5757
11216,5955,5757,5954
11217,5757,5955,5758
11218,5956,5758,5955
11219,5957,5759,5956
11220,5758,5956,5759
11221,5958,5760,5957
11222,5759,5957,5760
11223,5760,5958,5761
11224,5959,5761,5958
11225,5761,5959,5762
11226,5960,5762,5959
11227,5961,5763,5960
11228,5762,5960,5763
11229,5962,5764,5961
11230,5763,5961,5764
11231,5962,5963,5764
11232,5764,5963,5765
11233,5963,5964,5765
11234,5766,5765,5964
11235,5767,5766,5965
11236,5964,5965,5766
11237,5768,5767,5966
11238,5965,5966,5767
11239,5769,5967,5770
11240,5770,5967,5968
11241,5969,5771,5968
11242,5968,5771,5770
11243,5771,5969,5772
11244,5970,5772,5969
11245,5772,5970,5773
11246,5971,5773,5970
11247,5773,5971,5774
11248,5972,5774,5971
11249,5774,5972,5775
11250,5973,5775,5972
11251,5775,5973,5776
11252,5974,5776,5973
11253,5776,5974,5777
11254,5975,5777,5974
11255,5777,5975,5778
11256,5976,5778,5975
11257,5778,5976,5779
11258,5977,5779,5976
11259,5779,5977,5780
11260,5978,5780,5977
11261,5780,5978,5781
11262,5979,5781,5978
11263,5782,5781,5980
11264,5979,5980,5781
11265,5980,5981,5782
11266,5783,5782,5981
11267,5982,5784,5981
11268,5783,5981,5784
11269,5784,5982,5785
11270,5983,5785,5982
11271,5785,5983,5786
11272,5984,5786,5983
11273,5786,5984,5787
11274,5985,5787,5984
11275,5787,5985,5788
11276,5986,5788,5985
11277,5788,5986,5789
11278,5987,5789,5986
11279,5988,5790,5987
11280,5789,5987,5790
11281,5790,5988,5791
11282,5989,5791,5988
11283,5791,5989,5792
11284,5990,5792,5989
11285,5793,5792,5891
11286,5990,5891,5792
11287,5769,5768,5967
11288,5967,5768,5991
11289,5992,5991,5966
11290,5991,5768,5966
11291,5993,5818,5816
11292,5817,5816,5818
11293,5994,5819,5993
11294,5819,5818,5993
11295,5994,5995,5819
11296,5820,5819,5995
11297,5821,5820,5996
11298,5995,5996,5820
11299,5821,5996,5862
11300,5997,5862,5996
11301,5862,5997,5998
11302,5997,5999,5998
11303,5861,5862,6000
11304,5998,6000,5862
11305,5823,5861,6001
11306,6000,6001,5861
11307,6001,6002,5823
11308,5822,5823,6002
11309,5824,5822,6003
11310,6002,6003,5822
11311,5825,5824,6004
11312,5824,6003,6004
11313,5826,5825,6005
11314,6004,6005,5825
11315,5826,6005,5827
11316,6006,5827,6005
11317,5828,5827,6007
11318,6006,6007,5827
11319,6007,6008,5828
11320,6008,5829,5828
11321,6009,5830,6008
11322,5829,6008,5830
11323,5833,5832,6010
11324,5831,6010,5832
11325,5830,6009,5831
11326,6010,5831,6009
11327,6011,5993,5814
11328,5816,5814,5993
11329,5995,6012,5996
11330,6013,5996,6012
11331,5996,6013,5997
11332,6014,5997,6013
11333,5997,6014,5999
11334,6015,5999,6014
11335,6016,6017,6015
11336,5999,6015,6017
11337,6017,6018,5999
11338,6018,5998,5999
11339,6000,5998,6019
11340,6019,5998,6018
11341,6001,6000,6020
11342,6000,6019,6020
11343,6002,6001,6021
11344,6020,6021,6001
11345,6003,6002,6022
11346,6021,6022,6002
11347,6004,6003,6023
11348,6022,6023,6003
11349,6005,6004,6024
11350,6023,6024,6004
11351,6006,6005,6025
11352,6024,6025,6005
11353,6007,6006,6026
11354,6006,6025,6026
11355,6008,6007,6027
11356,6026,6027,6007
11357,6008,6027,6009
11358,6028,6009,6027
11359,6009,6028,6010
11360,6029,6010,6028
11361,6010,6029,5833
11362,6030,5833,6029
11363,6031,5834,6030
11364,6030,5834,5833
11365,5834,6031,5835
11366,6032,5835,6031
11367,5835,6032,5836
11368,6033,5836,6032
11369,5836,6033,5837
11370,6033,6034,5837
11371,5838,5837,6035
11372,6035,5837,6034
11373,5838,6035,5839
11374,6036,5839,6035
11375,5839,6036,5840
11376,5840,6036,6037
11377,5840,6037,5841
11378,5841,6037,5842
11379,6038,5843,6037
11380,5842,6037,5843
11381,5844,5843,6039
11382,6038,6039,5843
11383,6039,6040,5844
11384,5845,5844,6040
11385,6040,6041,5845
11386,5846,5845,6041
11387,6041,6042,5846
11388,5847,5846,6042
11389,6042,6043,5847
11390,6043,5848,5847
11391,6044,5849,6043
11392,5848,6043,5849
11393,6045,5850,6044
11394,5849,6044,5850
11395,6046,5851,6045
11396,5850,6045,5851
11397,5851,6046,5852
11398,6047,5852,6046
11399,6048,5853,6047
11400,5852,6047,5853
11401,6049,5854,6048
11402,5853,6048,5854
11403,6050,5855,6049
11404,5854,6049,5855
11405,6051,6052,6050
11406,5855,6050,6052
11407,6052,6053,5855
11408,5856,5855,6053
11409,6053,6054,5856
11410,5857,5856,6054
11411,6054,6055,5857
11412,5858,5857,6055
11413,6055,6056,5858
11414,5859,5858,6056
11415,6056,5951,5859
11416,5951,5860,5859
11417,5995,5994,6012
11418,6057,6012,5994
11419,5891,5990,5892
11420,6058,5892,5990
11421,5892,6058,5893
11422,6059,5893,6058
11423,5893,6059,5894
11424,6060,5894,6059
11425,6061,5895,6060
11426,6060,5895,5894
11427,6062,5896,6061
11428,5895,6061,5896
11429,6063,5897,6062
11430,5896,6062,5897
11431,5897,6063,5898
11432,6063,6064,5898
11433,5898,6064,5899
11434,6065,5899,6064
11435,5899,6065,5900
11436,6066,5900,6065
11437,5900,6066,5901
11438,5901,6066,6067
11439,5901,6067,5902
11440,6068,5902,6067
11441,5902,6068,5903
11442,5903,6068,6069
11443,5905,5904,6070
11444,6071,6070,5904
11445,5906,5905,6072
11446,5905,6070,6072
11447,5907,5906,6073
11448,6072,6073,5906
11449,5908,5907,6074
11450,5907,6073,6074
11451,5909,5908,6075
11452,6074,6075,5908
11453,5910,5909,6076
11454,6075,6076,5909
11455,6076,6077,5910
11456,5911,5910,6077
11457,6077,6078,5911
11458,6078,5912,5911
11459,6078,6079,5912
11460,6079,5913,5912
11461,6079,6080,5913
11462,5914,5913,6080
11463,5914,6080,5915
11464,6081,5915,6080
11465,5915,6081,5916
11466,6082,5916,6081
11467,5916,6082,5917
11468,6083,5917,6082
11469,5917,6083,5919
11470,6084,5919,6083
11471,5919,6084,6085
11472,6086,6085,6084
11473,6085,6087,5919
11474,5918,5919,6087
11475,5920,5918,6088
11476,6088,5918,6087
11477,5921,5920,6089
11478,6088,6089,5920
11479,5921,6089,5922
11480,6090,5922,6089
11481,5922,6090,5923
11482,6091,5923,6090
11483,6092,5924,6091
11484,5923,6091,5924
11485,6093,5925,6092
11486,5925,5924,6092
11487,5925,6093,5926
11488,6094,5926,6093
11489,5926,6094,5927
11490,6095,5927,6094
11491,5927,6095,5928
11492,6096,5928,6095
11493,5928,6096,5929
11494,6097,5929,6096
11495,5929,6097,5930
11496,6098,5930,6097
11497,6099,5931,6098
11498,5930,6098,5931
11499,6100,5932,6099
11500,5931,6099,5932
11501,6100,6101,5932
11502,5932,6101,5933
11503,5933,6101,5934
11504,5934,6101,6102
11505,5934,6102,5935
11506,6103,5935,6102
11507,5935,6103,5936
11508,5936,6103,6104
11509,5936,6104,5937
11510,6105,5937,6104
11511,5937,6105,5938
11512,6106,5938,6105
11513,5938,6106,5939
11514,6107,5939,6106
11515,5939,6107,5940
11516,6108,5940,6107
11517,5940,6108,5941
11518,6109,5941,6108
11519,5941,6109,5942
11520,6110,5942,6109
11521,5942,6110,5943
11522,6111,5943,6110
11523,5943,6111,5944
11524,5944,6111,6112
11525,5944,6112,5945
11526,6113,5945,6112
11527,5945,6113,5946
11528,5946,6113,6114
11529,5946,6114,5947
11530,6115,5947,6114
11531,5947,6115,5948
11532,6116,5948,6115
11533,5948,6116,5949
11534,6117,5949,6116
11535,5949,6117,5950
11536,6118,5950,6117
11537,5950,6118,5864
11538,5864,6118,5865
11539,5811,5810,5889
11540,5889,5810,5890
11541,5812,5811,5888
11542,5888,5811,5889
11543,5888,6119,5812
11544,5813,5812,6119
11545,5815,5813,6120
11546,6119,6120,5813
11547,6121,5815,6122
11548,6120,6122,5815
11549,6011,5814,6121
11550,5814,5815,6121
11551,6118,6123,5865
11552,5866,5865,6123
11553,5867,5866,6124
11554,6123,6124,5866
11555,6124,6125,5867
11556,5868,5867,6125
11557,5869,5868,6126
11558,6125,6126,5868
11559,6126,6127,5869
11560,5870,5869,6127
11561,6127,6128,5870
11562,5871,5870,6128
11563,5872,5871,6129
11564,6128,6129,5871
11565,6129,6130,5872
11566,5873,5872,6130
11567,5874,5873,6131
11568,6130,6131,5873
11569,6131,6132,5874
11570,5875,5874,6132
11571,6132,6133,5875
11572,5876,5875,6133
11573,5877,5876,6134
11574,6133,6134,5876
11575,5878,5877,6135
11576,6134,6135,5877
11577,5879,5878,6136
11578,5878,6135,6136
11579,6136,6137,5879
11580,5880,5879,6137
11581,5880,6137,5881
11582,6138,5881,6137
11583,5881,6138,5882
11584,6139,5882,6138
11585,5882,6139,5883
11586,6140,5883,6139
11587,6141,5884,6140
11588,5883,6140,5884
11589,5884,6141,6142
11590,6143,6142,6141
11591,6142,6144,5884
11592,5885,5884,6144
11593,6144,6145,5885
11594,5886,5885,6145
11595,6145,6146,5886
11596,5887,5886,6146
11597,5888,5887,6119
11598,6146,6119,5887
11599,5951,6056,5952
11600,6147,5952,6056
11601,6147,6148,5952
11602,6148,5953,5952
11603,6148,6149,5953
11604,6149,5954,5953
11605,6150,5955,6149
11606,5955,5954,6149
11607,6150,5957,5955
11608,5956,5955,5957
11609,5957,6150,5958
11610,6151,5958,6150
11611,5958,6151,5959
11612,6151,6152,5959
11613,5959,6152,5960
11614,6152,6153,5960
11615,6154,5961,6153
11616,5960,6153,5961
11617,6155,5962,6154
11618,5961,6154,5962
11619,6156,5963,6155
11620,5962,6155,5963
11621,5964,5963,6157
11622,6156,6157,5963
11623,5965,5964,6158
11624,6157,6158,5964
11625,5965,6158,5966
11626,6159,5966,6158
11627,5966,6159,5992
11628,6160,5992,6159
11629,6161,6162,6160
11630,5992,6160,6162
11631,5991,5992,6163
11632,5992,6162,6163
11633,5991,6163,5967
11634,6164,5967,6163
11635,6164,6165,5967
11636,5968,5967,6165
11637,6166,5969,6165
11638,5968,6165,5969
11639,5969,6166,5970
11640,6167,5970,6166
11641,5970,6167,5971
11642,6168,5971,6167
11643,5971,6168,5972
11644,6169,5972,6168
11645,5972,6169,5973
11646,6170,5973,6169
11647,5973,6170,5974
11648,6170,6171,5974
11649,5974,6171,5975
11650,6172,5975,6171
11651,5975,6172,5976
11652,6173,5976,6172
11653,5976,6173,5977
11654,5977,6173,6174
11655,5977,6174,5978
11656,6175,5978,6174
11657,6176,5979,6175
11658,5978,6175,5979
11659,6177,5980,6176
11660,6176,5980,5979
11661,5981,5980,6178
11662,5980,6177,6178
11663,5981,6178,5982
11664,6179,5982,6178
11665,6180,5983,6179
11666,5982,6179,5983
11667,5983,6180,5984
11668,6180,6181,5984
11669,6182,5985,6181
11670,5984,6181,5985
11671,6183,5986,6182
11672,5985,6182,5986
11673,6184,5987,6183
11674,5986,6183,5987
11675,6060,5988,6184
11676,5987,6184,5988
11677,5988,6060,5989
11678,6059,5989,6060
11679,5904,5903,6071
11680,5903,6185,6071
11681,6186,6185,6069
11682,5903,6069,6185
11683,5989,6059,5990
11684,6058,5990,6059
11685,6060,6184,6061
11686,6061,6184,6187
11687,6061,6187,6062
11688,6188,6062,6187
11689,6062,6188,6063
11690,6189,6063,6188
11691,6190,6064,6189
11692,6063,6189,6064
11693,6191,6065,6190
11694,6064,6190,6065
11695,6065,6191,6066
11696,6192,6066,6191
11697,6066,6192,6067
11698,6067,6192,6193
11699,6067,6193,6068
11700,6194,6068,6193
11701,6068,6194,6069
11702,6195,6069,6194
11703,6196,6186,6195
11704,6069,6195,6186
11705,6186,6196,6197
11706,6198,6197,6196
11707,6185,6186,6199
11708,6197,6199,6186
11709,6071,6185,6200
11710,6199,6200,6185
11711,6070,6071,6201
11712,6200,6201,6071
11713,6072,6070,6202
11714,6201,6202,6070
11715,6202,6203,6072
11716,6073,6072,6203
11717,6203,6204,6073
11718,6074,6073,6204
11719,6204,6205,6074
11720,6075,6074,6205
11721,6205,6206,6075
11722,6076,6075,6206
11723,6206,6207,6076
11724,6077,6076,6207
11725,6207,6208,6077
11726,6078,6077,6208
11727,6208,6209,6078
11728,6079,6078,6209
11729,6209,6210,6079
11730,6080,6079,6210
11731,6211,6081,6210
11732,6080,6210,6081
11733,6211,6083,6081
11734,6082,6081,6083
11735,6212,6084,6211
11736,6084,6083,6211
11737,6084,6212,6086
11738,6213,6086,6212
11739,6086,6213,6214
11740,6215,6214,6213
11741,6214,6216,6086
11742,6085,6086,6216
11743,6216,6217,6085
11744,6087,6085,6217
11745,6217,6218,6087
11746,6088,6087,6218
11747,6218,6090,6088
11748,6089,6088,6090
11749,6219,6176,6174
11750,6176,6175,6174
11751,6219,6220,6176
11752,6177,6176,6220
11753,6221,6178,6220
11754,6220,6178,6177
11755,6222,6179,6221
11756,6178,6221,6179
11757,6179,6222,6180
11758,6223,6180,6222
11759,6180,6223,6181
11760,6224,6181,6223
11761,6181,6224,6182
11762,6225,6182,6224
11763,6226,6183,6225
11764,6182,6225,6183
11765,6187,6184,6226
11766,6183,6226,6184
11767,6048,6047,6227
11768,6046,6227,6047
11769,6228,6049,6227
11770,6048,6227,6049
11771,6229,6050,6228
11772,6049,6228,6050
11773,6230,6051,6229
11774,6050,6229,6051
11775,6231,6232,6230
11776,6051,6230,6232
11777,6232,6233,6051
11778,6051,6233,6052
11779,6233,6234,6052
11780,6053,6052,6234
11781,6234,6235,6053
11782,6054,6053,6235
11783,6235,6236,6054
11784,6055,6054,6236
11785,6236,6147,6055
11786,6056,6055,6147
11787,6117,6237,6118
11788,6118,6237,6123
11789,6124,6123,6238
11790,6237,6238,6123
11791,6125,6124,6239
11792,6238,6239,6124
11793,6239,6240,6125
11794,6126,6125,6240
11795,6127,6126,6241
11796,6240,6241,6126
11797,6241,6242,6127
11798,6242,6128,6127
11799,6242,6243,6128
11800,6129,6128,6243
11801,6130,6129,6244
11802,6243,6244,6129
11803,6131,6130,6245
11804,6244,6245,6130
11805,6245,6246,6131
11806,6132,6131,6246
11807,6246,6247,6132
11808,6247,6133,6132
11809,6247,6248,6133
11810,6134,6133,6248
11811,6135,6134,6249
11812,6248,6249,6134
11813,6136,6135,6250
11814,6249,6250,6135
11815,6137,6136,6251
11816,6250,6251,6136
11817,6137,6251,6138
11818,6252,6138,6251
11819,6138,6252,6139
11820,6253,6139,6252
11821,6254,6140,6253
11822,6139,6253,6140
11823,6140,6254,6141
11824,6254,6255,6141
11825,6141,6255,6143
11826,6256,6143,6255
11827,6143,6256,6257
11828,6257,6256,6258
11829,6142,6143,6259
11830,6259,6143,6257
11831,6120,6119,6145
11832,6146,6145,6119
11833,6122,6120,6144
11834,6145,6144,6120
11835,6259,6122,6142
11836,6144,6142,6122
11837,6260,6261,6262
11838,6263,6262,6261
11839,6260,6262,6264
11840,6265,6264,6262
11841,6264,6265,6266
11842,6267,6266,6265
11843,6057,6264,6268
11844,6264,6266,6268
11845,6012,6057,6269
11846,6268,6269,6057
11847,6013,6012,6270
11848,6269,6270,6012
11849,6013,6270,6014
11850,6271,6014,6270
11851,6014,6271,6015
11852,6015,6271,6272
11853,6015,6272,6016
11854,6016,6272,6273
11855,6274,6275,6273
11856,6016,6273,6275
11857,6275,6276,6016
11858,6017,6016,6276
11859,6276,6277,6017
11860,6018,6017,6277
11861,6277,6278,6018
11862,6019,6018,6278
11863,6020,6019,6279
11864,6279,6019,6278
11865,6021,6020,6280
11866,6279,6280,6020
11867,6022,6021,6281
11868,6280,6281,6021
11869,6025,6024,6282
11870,6282,6024,6283
11871,6026,6025,6284
11872,6282,6284,6025
11873,6027,6026,6285
11874,6284,6285,6026
11875,6027,6285,6028
11876,6028,6285,6286
11877,6028,6286,6029
11878,6287,6029,6286
11879,6029,6287,6030
11880,6288,6030,6287
11881,6030,6288,6031
11882,6031,6288,6289
11883,6031,6289,6032
11884,6290,6032,6289
11885,6032,6290,6033
11886,6291,6033,6290
11887,6033,6291,6034
11888,6292,6034,6291
11889,6034,6292,6035
11890,6293,6035,6292
11891,6035,6293,6036
11892,6036,6293,6294
11893,6037,6036,6038
11894,6294,6038,6036
11895,6295,6091,6218
11896,6090,6218,6091
11897,6296,6092,6295
11898,6295,6092,6091
11899,6297,6093,6296
11900,6092,6296,6093
11901,6298,6094,6297
11902,6093,6297,6094
11903,6094,6298,6095
11904,6095,6298,6299
11905,6095,6299,6096
11906,6096,6299,6300
11907,6096,6300,6097
11908,6301,6097,6300
11909,6097,6301,6098
11910,6098,6301,6302
11911,6098,6302,6099
11912,6303,6099,6302
11913,6099,6303,6100
11914,6304,6100,6303
11915,6101,6305,6102
11916,6306,6102,6305
11917,6102,6306,6103
11918,6307,6103,6306
11919,6103,6307,6104
11920,6308,6104,6307
11921,6104,6308,6105
11922,6309,6105,6308
11923,6105,6309,6106
11924,6310,6106,6309
11925,6106,6310,6107
11926,6311,6107,6310
11927,6107,6311,6108
11928,6312,6108,6311
11929,6108,6312,6109
11930,6313,6109,6312
11931,6109,6313,6110
11932,6110,6313,6314
11933,6110,6314,6111
11934,6111,6314,6315
11935,6111,6315,6112
11936,6316,6112,6315
11937,6112,6316,6113
11938,6317,6113,6316
11939,6113,6317,6114
11940,6318,6114,6317
11941,6319,6115,6318
11942,6114,6318,6115
11943,6116,6115,6320
11944,6319,6320,6115
11945,6116,6320,6117
11946,6237,6117,6320
11947,6039,6038,6321
11948,6294,6321,6038
11949,6321,6322,6039
11950,6322,6040,6039
11951,6322,6323,6040
11952,6041,6040,6323
11953,6323,6324,6041
11954,6042,6041,6324
11955,6324,6325,6042
11956,6043,6042,6325
11957,6043,6325,6044
11958,6326,6044,6325
11959,6044,6326,6045
11960,6327,6045,6326
11961,6046,6045,6328
11962,6327,6328,6045
11963,6046,6328,6227
11964,6329,6227,6328
11965,6227,6329,6228
11966,6330,6228,6329
11967,6330,6331,6228
11968,6229,6228,6331
11969,6230,6229,6332
11970,6331,6332,6229
11971,6231,6230,6333
11972,6333,6230,6332
11973,6334,6231,6335
11974,6335,6231,6333
11975,6336,6232,6334
11976,6231,6334,6232
11977,6336,6337,6232
11978,6233,6232,6337
11979,6337,6338,6233
11980,6338,6234,6233
11981,6338,6339,6234
11982,6235,6234,6339
11983,6339,6340,6235
11984,6235,6340,6236
11985,6340,6148,6236
11986,6147,6236,6148
11987,6238,6237,6319
11988,6319,6237,6320
11989,6319,6341,6238
11990,6239,6238,6341
11991,6341,6342,6239
11992,6240,6239,6342
11993,6241,6240,6343
11994,6342,6343,6240
11995,6343,6344,6241
11996,6242,6241,6344
11997,6243,6242,6345
11998,6344,6345,6242
11999,6345,6346,6243
12000,6244,6243,6346
12001,6245,6244,6347
12002,6346,6347,6244
12003,6347,6348,6245
12004,6246,6245,6348
12005,6348,6349,6246
12006,6247,6246,6349
12007,6349,6350,6247
12008,6248,6247,6350
12009,6249,6248,6351
12010,6248,6350,6351
12011,6250,6249,6352
12012,6351,6352,6249
12013,6251,6250,6353
12014,6352,6353,6250
12015,6251,6353,6252
12016,6354,6252,6353
12017,6252,6354,6253
12018,6253,6354,6355
12019,6253,6355,6254
12020,6356,6254,6355
12021,6357,6255,6356
12022,6254,6356,6255
12023,6255,6357,6256
12024,6358,6256,6357
12025,6256,6358,6258
12026,6359,6258,6358
12027,6258,6359,6360
12028,6361,6360,6359
12029,6257,6258,6263
12030,6360,6263,6258
12031,6149,6148,6362
12032,6340,6362,6148
12033,6149,6362,6150
12034,6363,6150,6362
12035,6364,6151,6363
12036,6150,6363,6151
12037,6365,6152,6364
12038,6151,6364,6152
12039,6152,6365,6153
12040,6366,6153,6365
12041,6367,6154,6366
12042,6366,6154,6153
12043,6368,6155,6367
12044,6155,6154,6367
12045,6369,6156,6368
12046,6155,6368,6156
12047,6369,6370,6156
12048,6157,6156,6370
12049,6370,6371,6157
12050,6158,6157,6371
12051,6159,6158,6372
12052,6371,6372,6158
12053,6159,6372,6160
12054,6373,6160,6372
12055,6160,6373,6161
12056,6374,6161,6373
12057,6375,6376,6374
12058,6161,6374,6376
12059,6376,6377,6161
12060,6162,6161,6377
12061,6377,6164,6162
12062,6164,6163,6162
12063,6187,6226,6188
12064,6188,6226,6378
12065,6188,6378,6189
12066,6379,6189,6378
12067,6190,6189,6380
12068,6380,6189,6379
12069,6381,6191,6380
12070,6190,6380,6191
12071,6382,6192,6381
12072,6191,6381,6192
12073,6383,6193,6382
12074,6192,6382,6193
12075,6384,6194,6383
12076,6193,6383,6194
12077,6379,6385,6380
12078,6386,6380,6385
12079,6380,6386,6381
12080,6387,6381,6386
12081,6381,6387,6382
12082,6388,6382,6387
12083,6382,6388,6383
12084,6389,6383,6388
12085,6383,6389,6384
12086,6390,6384,6389
12087,6391,6196,6390
12088,6384,6390,6196
12089,6196,6195,6384
12090,6194,6384,6195
12091,6392,6198,6391
12092,6196,6391,6198
12093,6198,6392,6393
12094,6394,6393,6392
12095,6197,6198,6395
12096,6393,6395,6198
12097,6199,6197,6396
12098,6395,6396,6197
12099,6200,6199,6397
12100,6396,6397,6199
12101,6201,6200,6398
12102,6397,6398,6200
12103,6202,6201,6399
12104,6398,6399,6201
12105,6203,6202,6400
12106,6400,6202,6399
12107,6400,6401,6203
12108,6204,6203,6401
12109,6401,6402,6204
12110,6205,6204,6402
12111,6402,6403,6205
12112,6205,6403,6206
12113,6403,6404,6206
12114,6207,6206,6404
12115,6404,6405,6207
12116,6208,6207,6405
12117,6405,6406,6208
12118,6209,6208,6406
12119,6210,6209,6407
12120,6406,6407,6209
12121,6211,6210,6408
12122,6407,6408,6210
12123,6211,6408,6212
12124,6409,6212,6408
12125,6212,6409,6213
12126,6410,6213,6409
12127,6213,6410,6215
12128,6411,6215,6410
12129,6215,6411,6412
12130,6413,6412,6411
12131,6214,6215,6414
12132,6412,6414,6215
12133,6414,6415,6214
12134,6216,6214,6415
12135,6415,6416,6216
12136,6217,6216,6416
12137,6416,6295,6217
12138,6218,6217,6295
12139,6417,6373,6371
12140,6372,6371,6373
12141,6418,6374,6417
12142,6373,6417,6374
12143,6419,6375,6418
12144,6374,6418,6375
12145,6375,6419,6420
12146,6421,6420,6419
12147,6376,6375,6422
12148,6420,6422,6375
12149,6422,6423,6376
12150,6377,6376,6423
12151,6423,6424,6377
12152,6164,6377,6424
12153,6165,6164,6425
12154,6424,6425,6164
12155,6101,6100,6305
12156,6426,6305,6100
12157,6427,6426,6304
12158,6100,6304,6426
12159,6425,6428,6165
12160,6166,6165,6428
12161,6166,6428,6167
12162,6429,6167,6428
12163,6167,6429,6168
12164,6430,6168,6429
12165,6168,6430,6169
12166,6430,6431,6169
12167,6432,6170,6431
12168,6170,6169,6431
12169,6433,6171,6432
12170,6170,6432,6171
12171,6434,6172,6433
12172,6171,6433,6172
12173,6435,6173,6434
12174,6172,6434,6173
12175,6219,6174,6435
12176,6174,6173,6435
12177,6436,6296,6416
12178,6295,6416,6296
12179,6437,6297,6436
12180,6296,6436,6297
12181,6438,6298,6437
12182,6297,6437,6298
12183,6298,6438,6299
12184,6439,6299,6438
12185,6299,6439,6300
12186,6440,6300,6439
12187,6300,6440,6301
12188,6301,6440,6441
12189,6301,6441,6302
12190,6442,6302,6441
12191,6302,6442,6303
12192,6443,6303,6442
12193,6303,6443,6304
12194,6304,6443,6444
12195,6445,6427,6444
12196,6304,6444,6427
12197,6446,6447,6445
12198,6427,6445,6447
12199,6426,6427,6448
12200,6427,6447,6448
12201,6305,6426,6449
12202,6448,6449,6426
12203,6306,6305,6450
12204,6449,6450,6305
12205,6306,6450,6307
12206,6451,6307,6450
12207,6307,6451,6308
12208,6452,6308,6451
12209,6308,6452,6309
12210,6453,6309,6452
12211,6309,6453,6310
12212,6454,6310,6453
12213,6310,6454,6311
12214,6455,6311,6454
12215,6311,6455,6312
12216,6455,6456,6312
12217,6457,6313,6456
12218,6312,6456,6313
12219,6313,6457,6314
12220,6458,6314,6457
12221,6314,6458,6315
12222,6459,6315,6458
12223,6460,6316,6459
12224,6315,6459,6316
12225,6316,6460,6317
12226,6461,6317,6460
12227,6317,6461,6318
12228,6462,6318,6461
12229,6318,6462,6319
12230,6341,6319,6462
12231,6293,6463,6294
12232,6321,6294,6463
12233,6322,6321,6464
12234,6321,6463,6464
12235,6323,6322,6465
12236,6464,6465,6322
12237,6465,6466,6323
12238,6324,6323,6466
12239,6466,6467,6324
12240,6325,6324,6467
12241,6326,6325,6468
12242,6325,6467,6468
12243,6326,6468,6327
12244,6469,6327,6468
12245,6327,6469,6328
12246,6470,6328,6469
12247,6328,6470,6329
12248,6471,6329,6470
12249,6329,6471,6330
12250,6472,6330,6471
12251,6330,6472,6331
12252,6473,6331,6472
12253,6331,6473,6332
12254,6474,6332,6473
12255,6333,6332,6475
12256,6474,6475,6332
12257,6335,6333,6476
12258,6475,6476,6333
12259,6477,6335,6478
12260,6476,6478,6335
12261,6479,6334,6477
12262,6335,6477,6334
12263,6479,6480,6334
12264,6336,6334,6480
12265,6480,6481,6336
12266,6337,6336,6481
12267,6481,6482,6337
12268,6338,6337,6482
12269,6482,6483,6338
12270,6339,6338,6483
12271,6483,6362,6339
12272,6340,6339,6362
12273,6484,6417,6370
12274,6371,6370,6417
12275,6485,6418,6484
12276,6417,6484,6418
12277,6486,6419,6485
12278,6419,6418,6485
12279,6419,6486,6421
12280,6487,6421,6486
12281,6421,6487,6488
12282,6489,6488,6487
12283,6420,6421,6490
12284,6488,6490,6421
12285,6422,6420,6491
12286,6490,6491,6420
12287,6491,6492,6422
12288,6423,6422,6492
12289,6424,6423,6493
12290,6492,6493,6423
12291,6493,6494,6424
12292,6425,6424,6494
12293,6428,6425,6495
12294,6425,6494,6495
12295,6428,6495,6429
12296,6496,6429,6495
12297,6497,6430,6496
12298,6429,6496,6430
12299,6497,6432,6430
12300,6430,6432,6431
12301,6498,6433,6497
12302,6432,6497,6433
12303,6499,6434,6498
12304,6498,6434,6433
12305,6500,6435,6499
12306,6499,6435,6434
12307,6435,6500,6219
12308,6501,6219,6500
12309,6219,6501,6220
12310,6501,6502,6220
12311,6220,6502,6221
12312,6503,6221,6502
12313,6221,6503,6222
12314,6504,6222,6503
12315,6386,6223,6504
12316,6222,6504,6223
12317,6223,6386,6224
12318,6386,6385,6224
12319,6271,6505,6272
12320,6506,6272,6505
12321,6507,6273,6506
12322,6506,6273,6272
12323,6508,6274,6507
12324,6273,6507,6274
12325,6509,6510,6508
12326,6508,6510,6274
12327,6510,6511,6274
12328,6275,6274,6511
12329,6511,6512,6275
12330,6276,6275,6512
12331,6512,6513,6276
12332,6277,6276,6513
12333,6513,6514,6277
12334,6277,6514,6278
12335,6514,6515,6278
12336,6278,6515,6279
12337,6280,6279,6516
12338,6515,6516,6279
12339,6281,6280,6517
12340,6516,6517,6280
12341,6518,6519,6283
12342,6282,6283,6519
12343,6519,6520,6282
12344,6284,6282,6520
12345,6520,6521,6284
12346,6285,6284,6521
12347,6286,6285,6522
12348,6521,6522,6285
12349,6286,6522,6287
12350,6523,6287,6522
12351,6287,6523,6288
12352,6524,6288,6523
12353,6525,6289,6524
12354,6288,6524,6289
12355,6526,6290,6525
12356,6289,6525,6290
12357,6527,6291,6526
12358,6290,6526,6291
12359,6528,6292,6527
12360,6291,6527,6292
12361,6463,6293,6528
12362,6292,6528,6293
12363,6354,6353,6529
12364,6353,6530,6529
12365,6462,6531,6341
12366,6531,6342,6341
12367,6343,6342,6532
12368,6531,6532,6342
12369,6344,6343,6533
12370,6532,6533,6343
12371,6533,6534,6344
12372,6345,6344,6534
12373,6346,6345,6535
12374,6534,6535,6345
12375,6535,6536,6346
12376,6347,6346,6536
12377,6348,6347,6537
12378,6347,6536,6537
12379,6537,6538,6348
12380,6349,6348,6538
12381,6538,6351,6349
12382,6349,6351,6350
12383,6529,6530,6539
12384,6540,6539,6530
12385,6529,6539,6541
12386,6539,6542,6541
12387,6354,6529,6355
12388,6541,6355,6529
12389,6263,6360,6262
12390,6543,6262,6360
12391,6262,6543,6265
12392,6544,6265,6543
12393,6265,6544,6267
12394,6545,6267,6544
12395,6546,6547,6545
12396,6267,6545,6547
12397,6547,6548,6267
12398,6266,6267,6548
12399,6549,6398,6396
12400,6397,6396,6398
12401,6550,6399,6549
12402,6549,6399,6398
12403,6550,6551,6399
12404,6400,6399,6551
12405,6551,6552,6400
12406,6400,6552,6401
12407,6552,6553,6401
12408,6553,6402,6401
12409,6554,6403,6553
12410,6402,6553,6403
12411,6554,6555,6403
12412,6404,6403,6555
12413,6555,6556,6404
12414,6405,6404,6556
12415,6406,6405,6557
12416,6556,6557,6405
12417,6407,6406,6558
12418,6406,6557,6558
12419,6408,6407,6559
12420,6558,6559,6407
12421,6408,6559,6409
12422,6559,6560,6409
12423,6409,6560,6410
12424,6410,6560,6561
12425,6410,6561,6411
12426,6562,6411,6561
12427,6563,6413,6562
12428,6411,6562,6413
12429,6564,6565,6563
12430,6413,6563,6565
12431,6412,6413,6566
12432,6565,6566,6413
12433,6414,6412,6567
12434,6566,6567,6412
12435,6415,6414,6568
12436,6567,6568,6414
12437,6416,6415,6569
12438,6568,6569,6415
12439,6416,6569,6436
12440,6570,6436,6569
12441,6436,6570,6437
12442,6570,6571,6437
12443,6437,6571,6438
12444,6572,6438,6571
12445,6438,6572,6439
12446,6573,6439,6572
12447,6439,6573,6440
12448,6574,6440,6573
12449,6440,6574,6441
12450,6574,6575,6441
12451,6576,6442,6575
12452,6441,6575,6442
12453,6577,6443,6576
12454,6442,6576,6443
12455,6578,6549,6395
12456,6549,6396,6395
12457,6579,6550,6578
12458,6549,6578,6550
12459,6550,6579,6551
12460,6580,6551,6579
12461,6552,6551,6581
12462,6551,6580,6581
12463,6553,6552,6582
12464,6582,6552,6581
12465,6554,6553,6583
12466,6582,6583,6553
12467,6556,6555,6584
12468,6585,6584,6555
12469,6557,6556,6586
12470,6584,6586,6556
12471,6558,6557,6587
12472,6586,6587,6557
12473,6555,6554,6585
12474,6588,6585,6554
12475,6554,6583,6588
12476,6583,6589,6588
12477,6590,6578,6393
12478,6393,6578,6395
12479,6591,6579,6590
12480,6578,6590,6579
12481,6591,6592,6579
12482,6580,6579,6592
12483,6592,6593,6580
12484,6593,6581,6580
12485,6582,6581,6594
12486,6593,6594,6581
12487,6583,6582,6595
12488,6594,6595,6582
12489,6393,6394,6590
12490,6596,6590,6394
12491,6590,6596,6591
12492,6597,6591,6596
12493,6447,6446,6598
12494,6599,6598,6446
12495,6448,6447,6600
12496,6598,6600,6447
12497,6449,6448,6601
12498,6448,6600,6601
12499,6449,6601,6450
12500,6450,6601,6602
12501,6450,6602,6451
12502,6603,6451,6602
12503,6451,6603,6452
12504,6604,6452,6603
12505,6605,6453,6604
12506,6453,6452,6604
12507,6606,6454,6605
12508,6453,6605,6454
12509,6607,6455,6606
12510,6454,6606,6455
12511,6455,6607,6456
12512,6608,6456,6607
12513,6609,6457,6608
12514,6457,6456,6608
12515,6610,6458,6609
12516,6457,6609,6458
12517,6611,6459,6610
12518,6458,6610,6459
12519,6612,6460,6611
12520,6459,6611,6460
12521,6532,6461,6612
12522,6460,6612,6461
12523,6462,6461,6531
12524,6532,6531,6461
12525,6613,6356,6541
12526,6355,6541,6356
12527,6356,6613,6357
12528,6614,6357,6613
12529,6357,6614,6358
12530,6615,6358,6614
12531,6358,6615,6359
12532,6616,6359,6615
12533,6359,6616,6361
12534,6616,6617,6361
12535,6361,6617,6618
12536,6619,6618,6617
12537,6360,6361,6543
12538,6543,6361,6618
12539,6362,6483,6363
12540,6363,6483,6620
12541,6363,6620,6364
12542,6621,6364,6620
12543,6622,6365,6621
12544,6364,6621,6365
12545,6365,6622,6366
12546,6623,6366,6622
12547,6624,6367,6623
12548,6366,6623,6367
12549,6625,6368,6624
12550,6624,6368,6367
12551,6626,6369,6625
12552,6368,6625,6369
12553,6484,6370,6626
12554,6626,6370,6369
12555,6627,6496,6494
12556,6494,6496,6495
12557,6628,6497,6627
12558,6496,6627,6497
12559,6497,6628,6498
12560,6629,6498,6628
12561,6498,6629,6499
12562,6630,6499,6629
12563,6502,6631,6503
12564,6632,6503,6631
12565,6503,6632,6504
12566,6504,6632,6633
12567,6386,6504,6387
12568,6633,6387,6504
12569,6634,6524,6522
12570,6523,6522,6524
12571,6635,6525,6634
12572,6524,6634,6525
12573,6636,6526,6635
12574,6525,6635,6526
12575,6637,6527,6636
12576,6526,6636,6527
12577,6638,6528,6637
12578,6527,6637,6528
12579,6464,6463,6638
12580,6528,6638,6463
12581,6387,6633,6388
12582,6632,6388,6633
12583,6388,6632,6389
12584,6631,6389,6632
12585,6392,6630,6394
12586,6629,6394,6630
12587,6628,6596,6629
12588,6394,6629,6596
12589,6465,6464,6639
12590,6638,6639,6464
12591,6639,6640,6465
12592,6466,6465,6640
12593,6640,6641,6466
12594,6467,6466,6641
12595,6641,6642,6467
12596,6468,6467,6642
12597,6468,6642,6469
12598,6643,6469,6642
12599,6469,6643,6470
12600,6644,6470,6643
12601,6470,6644,6471
12602,6645,6471,6644
12603,6471,6645,6472
12604,6646,6472,6645
12605,6472,6646,6473
12606,6647,6473,6646
12607,6473,6647,6474
12608,6648,6474,6647
12609,6649,6475,6648
12610,6474,6648,6475
12611,6476,6475,6650
12612,6649,6650,6475
12613,6478,6476,6651
12614,6650,6651,6476
12615,6652,6478,6653
12616,6651,6653,6478
12617,6654,6477,6652
12618,6652,6477,6478
12619,6655,6479,6654
12620,6479,6477,6654
12621,6655,6656,6479
12622,6480,6479,6656
12623,6656,6657,6480
12624,6481,6480,6657
12625,6657,6658,6481
12626,6482,6481,6658
12627,6483,6482,6620
12628,6658,6620,6482
12629,6543,6618,6544
12630,6659,6544,6618
12631,6544,6659,6545
12632,6659,6660,6545
12633,6545,6660,6546
12634,6661,6546,6660
12635,6546,6661,6662
12636,6663,6662,6661
12637,6662,6664,6546
12638,6546,6664,6547
12639,6664,6665,6547
12640,6548,6547,6665
12641,6666,6548,6667
12642,6667,6548,6665
12643,6268,6266,6666
12644,6548,6666,6266
12645,6269,6268,6668
12646,6666,6668,6268
12647,6667,6669,6666
12648,6668,6666,6669
12649,6670,6506,6669
12650,6505,6669,6506
12651,6671,6507,6670
12652,6507,6506,6670
12653,6672,6508,6671
12654,6671,6508,6507
12655,6673,6509,6672
12656,6508,6672,6509
12657,6674,6675,6673
12658,6509,6673,6675
12659,6675,6676,6509
12660,6509,6676,6510
12661,6676,6677,6510
12662,6511,6510,6677
12663,6677,6678,6511
12664,6512,6511,6678
12665,6678,6679,6512
12666,6679,6513,6512
12667,6679,6680,6513
12668,6514,6513,6680
12669,6491,6490,6592
12670,6593,6592,6490
12671,6490,6488,6593
12672,6594,6593,6488
12673,6560,6681,6561
12674,6682,6561,6681
12675,6683,6562,6682
12676,6561,6682,6562
12677,6684,6563,6683
12678,6562,6683,6563
12679,6685,6564,6684
12680,6563,6684,6564
12681,6686,6687,6685
12682,6564,6685,6687
12683,6565,6564,6688
12684,6564,6687,6688
12685,6566,6565,6689
12686,6565,6688,6689
12687,6567,6566,6690
12688,6689,6690,6566
12689,6568,6567,6691
12690,6690,6691,6567
12691,6569,6568,6692
12692,6691,6692,6568
12693,6569,6692,6570
12694,6693,6570,6692
12695,6570,6693,6571
12696,6694,6571,6693
12697,6571,6694,6572
12698,6695,6572,6694
12699,6696,6573,6695
12700,6572,6695,6573
12701,6697,6574,6696
12702,6573,6696,6574
12703,6574,6697,6575
12704,6698,6575,6697
12705,6575,6698,6576
12706,6699,6576,6698
12707,6700,6577,6699
12708,6699,6577,6576
12709,6446,6445,6700
12710,6577,6700,6445
12711,6445,6444,6577
12712,6443,6577,6444
12713,6559,6701,6560
12714,6681,6560,6701
12715,6702,6681,6703
12716,6681,6701,6703
12717,6702,6683,6681
12718,6682,6681,6683
12719,6704,6684,6702
12720,6702,6684,6683
12721,6705,6685,6704
12722,6684,6704,6685
12723,6706,6686,6705
12724,6685,6705,6686
12725,6686,6706,6707
12726,6708,6707,6706
12727,6687,6686,6709
12728,6707,6709,6686
12729,6709,6710,6687
12730,6710,6688,6687
12731,6710,6711,6688
12732,6711,6689,6688
12733,6690,6689,6712
12734,6711,6712,6689
12735,6712,6713,6690
12736,6691,6690,6713
12737,6692,6691,6714
12738,6714,6691,6713
12739,6692,6714,6693
12740,6715,6693,6714
12741,6716,6694,6715
12742,6693,6715,6694
12743,6717,6695,6716
12744,6694,6716,6695
12745,6718,6696,6717
12746,6695,6717,6696
12747,6719,6697,6718
12748,6718,6697,6696
12749,6697,6719,6698
12750,6720,6698,6719
12751,6698,6720,6699
12752,6721,6699,6720
12753,6699,6721,6700
12754,6722,6700,6721
12755,6700,6722,6446
12756,6723,6446,6722
12757,6724,6599,6723
12758,6446,6723,6599
12759,6725,6726,6724
12760,6599,6724,6726
12761,6726,6727,6599
12762,6598,6599,6727
12763,6600,6598,6728
12764,6728,6598,6727
12765,6602,6729,6603
12766,6603,6729,6730
12767,6731,6604,6730
12768,6603,6730,6604
12769,6732,6605,6731
12770,6604,6731,6605
12771,6733,6606,6732
12772,6605,6732,6606
12773,6734,6607,6733
12774,6606,6733,6607
12775,6735,6608,6734
12776,6607,6734,6608
12777,6736,6609,6735
12778,6735,6609,6608
12779,6609,6736,6610
12780,6737,6610,6736
12781,6610,6737,6611
12782,6738,6611,6737
12783,6611,6738,6612
12784,6739,6612,6738
12785,6612,6739,6532
12786,6533,6532,6739
12787,6740,6670,6667
12788,6667,6670,6669
12789,6741,6671,6740
12790,6670,6740,6671
12791,6742,6672,6741
12792,6741,6672,6671
12793,6743,6673,6742
12794,6672,6742,6673
12795,6744,6674,6743
12796,6673,6743,6674
12797,6745,6746,6744
12798,6674,6744,6746
12799,6746,6747,6674
12800,6675,6674,6747
12801,6747,6748,6675
12802,6676,6675,6748
12803,6748,6749,6676
12804,6677,6676,6749
12805,6749,6750,6677
12806,6678,6677,6750
12807,6750,6751,6678
12808,6679,6678,6751
12809,6751,6752,6679
12810,6752,6680,6679
12811,6752,6517,6680
12812,6516,6680,6517
12813,6680,6516,6514
12814,6514,6516,6515
12815,6664,6740,6665
12816,6665,6740,6667
12817,6753,6741,6664
12818,6664,6741,6740
12819,6754,6742,6753
12820,6741,6753,6742
12821,6755,6743,6754
12822,6742,6754,6743
12823,6743,6755,6744
12824,6756,6744,6755
12825,6744,6756,6745
12826,6757,6745,6756
12827,6745,6757,6758
12828,6759,6758,6757
12829,6758,6760,6745
12830,6746,6745,6760
12831,6760,6761,6746
12832,6746,6761,6747
12833,6761,6762,6747
12834,6748,6747,6762
12835,6762,6763,6748
12836,6749,6748,6763
12837,6763,6764,6749
12838,6749,6764,6750
12839,6764,6765,6750
12840,6751,6750,6765
12841,6765,6766,6751
12842,6752,6751,6766
12843,6767,6519,6768
12844,6518,6768,6519
12845,6767,6769,6519
12846,6520,6519,6769
12847,6769,6770,6520
12848,6521,6520,6770
12849,6770,6634,6521
12850,6522,6521,6634
12851,6613,6541,6771
12852,6542,6771,6541
12853,6772,6614,6771
12854,6613,6771,6614
12855,6614,6772,6615
12856,6773,6615,6772
12857,6615,6773,6616
12858,6774,6616,6773
12859,6616,6774,6617
12860,6775,6617,6774
12861,6617,6775,6619
12862,6776,6619,6775
12863,6619,6776,6777
12864,6778,6777,6776
12865,6618,6619,6659
12866,6659,6619,6777
12867,6637,6779,6638
12868,6639,6638,6779
12869,6779,6780,6639
12870,6640,6639,6780
12871,6780,6781,6640
12872,6641,6640,6781
12873,6781,6782,6641
12874,6642,6641,6782
12875,6782,6783,6642
12876,6643,6642,6783
12877,6643,6783,6644
12878,6784,6644,6783
12879,6644,6784,6645
12880,6785,6645,6784
12881,6645,6785,6646
12882,6786,6646,6785
12883,6646,6786,6647
12884,6787,6647,6786
12885,6647,6787,6648
12886,6648,6787,6788
12887,6789,6649,6788
12888,6648,6788,6649
12889,6790,6650,6789
12890,6649,6789,6650
12891,6651,6650,6791
12892,6790,6791,6650
12893,6791,6792,6651
12894,6653,6651,6792
12895,6793,6653,6794
12896,6794,6653,6792
12897,6795,6652,6793
12898,6653,6793,6652
12899,6796,6654,6795
12900,6652,6795,6654
12901,6796,6797,6654
12902,6655,6654,6797
12903,6797,6798,6655
12904,6655,6798,6656
12905,6798,6799,6656
12906,6657,6656,6799
12907,6799,6800,6657
12908,6658,6657,6800
12909,6620,6658,6621
12910,6658,6800,6621
12911,6558,6587,6559
12912,6701,6559,6587
12913,6621,6800,6622
12914,6801,6622,6800
12915,6622,6801,6623
12916,6802,6623,6801
12917,6623,6802,6624
12918,6624,6802,6803
12919,6804,6625,6803
12920,6624,6803,6625
12921,6805,6626,6804
12922,6625,6804,6626
12923,6806,6484,6805
12924,6626,6805,6484
12925,6484,6806,6485
12926,6807,6485,6806
12927,6485,6807,6486
12928,6808,6486,6807
12929,6486,6808,6487
12930,6809,6487,6808
12931,6810,6635,6770
12932,6634,6770,6635
12933,6811,6636,6810
12934,6635,6810,6636
12935,6636,6811,6637
12936,6779,6637,6811
12937,6534,6533,6812
12938,6739,6812,6533
12939,6812,6813,6534
12940,6535,6534,6813
12941,6536,6535,6814
12942,6813,6814,6535
12943,6537,6536,6815
12944,6814,6815,6536
12945,6816,6715,6713
12946,6714,6713,6715
12947,6817,6716,6816
12948,6816,6716,6715
12949,6818,6717,6817
12950,6716,6817,6717
12951,6819,6718,6818
12952,6717,6818,6718
12953,6820,6719,6819
12954,6718,6819,6719
12955,6719,6820,6720
12956,6821,6720,6820
12957,6720,6821,6721
12958,6822,6721,6821
12959,6721,6822,6722
12960,6823,6722,6822
12961,6722,6823,6723
12962,6824,6723,6823
12963,6723,6824,6724
12964,6724,6824,6825
12965,6826,6725,6825
12966,6724,6825,6725
12967,6827,6828,6826
12968,6725,6826,6828
12969,6828,6829,6725
12970,6726,6725,6829
12971,6829,6830,6726
12972,6727,6726,6830
12973,6738,6831,6739
12974,6812,6739,6831
12975,6831,6832,6812
12976,6813,6812,6832
12977,6814,6813,6833
12978,6832,6833,6813
12979,6833,6834,6814
12980,6814,6834,6815
12981,6540,6815,6835
12982,6834,6835,6815
12983,6539,6540,6836
12984,6835,6836,6540
12985,6542,6539,6837
12986,6836,6837,6539
12987,6838,6771,6837
12988,6542,6837,6771
12989,6771,6838,6772
12990,6838,6839,6772
12991,6772,6839,6773
12992,6773,6839,6840
12993,6773,6840,6774
12994,6841,6774,6840
12995,6774,6841,6775
12996,6842,6775,6841
12997,6775,6842,6776
12998,6843,6776,6842
12999,6776,6843,6778
13000,6844,6778,6843
13001,6778,6844,6845
13002,6846,6845,6844
13003,6777,6778,6847
13004,6845,6847,6778
13005,6659,6777,6660
13006,6847,6660,6777
13007,6660,6847,6661
13008,6661,6847,6848
13009,6661,6848,6663
13010,6849,6663,6848
13011,6663,6849,6850
13012,6851,6850,6849
13013,6662,6663,6852
13014,6663,6850,6852
13015,6664,6662,6753
13016,6662,6852,6753
13017,6811,6853,6779
13018,6780,6779,6853
13019,6853,6854,6780
13020,6781,6780,6854
13021,6854,6855,6781
13022,6782,6781,6855
13023,6855,6856,6782
13024,6783,6782,6856
13025,6857,6784,6856
13026,6783,6856,6784
13027,6858,6785,6857
13028,6857,6785,6784
13029,6785,6858,6786
13030,6859,6786,6858
13031,6786,6859,6787
13032,6787,6859,6860
13033,6861,6788,6860
13034,6787,6860,6788
13035,6862,6789,6861
13036,6788,6861,6789
13037,6863,6790,6862
13038,6789,6862,6790
13039,6864,6791,6863
13040,6790,6863,6791
13041,6791,6864,6792
13042,6865,6792,6864
13043,6865,6866,6792
13044,6794,6792,6866
13045,6867,6794,6868
13046,6868,6794,6866
13047,6869,6793,6867
13048,6794,6867,6793
13049,6870,6795,6869
13050,6793,6869,6795
13051,6871,6796,6870
13052,6795,6870,6796
13053,6871,6872,6796
13054,6796,6872,6797
13055,6872,6873,6797
13056,6798,6797,6873
13057,6873,6874,6798
13058,6799,6798,6874
13059,6800,6799,6801
13060,6874,6801,6799
13061,6585,6588,6875
13062,6588,6876,6875
13063,6584,6585,6877
13064,6875,6877,6585
13065,6586,6584,6878
13066,6877,6878,6584
13067,6587,6586,6879
13068,6878,6879,6586
13069,6701,6587,6703
13070,6879,6703,6587
13071,6880,6731,6881
13072,6730,6881,6731
13073,6882,6732,6880
13074,6731,6880,6732
13075,6883,6733,6882
13076,6732,6882,6733
13077,6733,6883,6734
13078,6884,6734,6883
13079,6734,6884,6735
13080,6885,6735,6884
13081,6735,6885,6736
13082,6886,6736,6885
13083,6736,6886,6737
13084,6887,6737,6886
13085,6737,6887,6738
13086,6831,6738,6887
13087,6888,6769,6889
13088,6767,6889,6769
13089,6888,6810,6769
13090,6770,6769,6810
13091,6801,6874,6802
13092,6802,6874,6890
13093,6802,6890,6803
13094,6891,6803,6890
13095,6892,6804,6891
13096,6803,6891,6804
13097,6893,6805,6892
13098,6892,6805,6804
13099,6894,6806,6893
13100,6806,6805,6893
13101,6806,6894,6807
13102,6895,6807,6894
13103,6896,6808,6895
13104,6895,6808,6807
13105,6808,6896,6809
13106,6876,6809,6896
13107,6588,6589,6876
13108,6809,6876,6589
13109,6589,6489,6809
13110,6487,6809,6489
13111,6810,6888,6811
13112,6853,6811,6888
13113,6583,6595,6589
13114,6489,6589,6595
13115,6488,6489,6594
13116,6595,6594,6489
13117,6887,6897,6831
13118,6831,6897,6832
13119,6833,6832,6898
13120,6897,6898,6832
13121,6834,6833,6899
13122,6898,6899,6833
13123,6835,6834,6900
13124,6899,6900,6834
13125,6836,6835,6901
13126,6900,6901,6835
13127,6837,6836,6902
13128,6901,6902,6836
13129,6837,6902,6838
13130,6903,6838,6902
13131,6904,6839,6903
13132,6838,6903,6839
13133,6839,6904,6840
13134,6840,6904,6905
13135,6906,6841,6905
13136,6840,6905,6841
13137,6907,6842,6906
13138,6841,6906,6842
13139,6908,6843,6907
13140,6842,6907,6843
13141,6909,6844,6908
13142,6843,6908,6844
13143,6909,6910,6844
13144,6846,6844,6910
13145,6910,6911,6846
13146,6912,6846,6911
13147,6845,6846,6913
13148,6912,6913,6846
13149,6847,6845,6848
13150,6913,6848,6845
13151,6875,6876,6914
13152,6896,6914,6876
13153,6877,6875,6915
13154,6914,6915,6875
13155,6878,6877,6916
13156,6915,6916,6877
13157,6916,6917,6878
13158,6879,6878,6917
13159,6703,6879,6918
13160,6917,6918,6879
13161,6703,6918,6702
13162,6919,6702,6918
13163,6702,6919,6704
13164,6704,6919,6920
13165,6921,6705,6920
13166,6920,6705,6704
13167,6922,6706,6921
13168,6705,6921,6706
13169,6923,6708,6922
13170,6706,6922,6708
13171,6708,6923,6924
13172,6924,6923,6925
13173,6707,6708,6926
13174,6924,6926,6708
13175,6709,6707,6927
13176,6926,6927,6707
13177,6927,6928,6709
13178,6710,6709,6928
13179,6711,6710,6929
13180,6929,6710,6928
13181,6929,6930,6711
13182,6712,6711,6930
13183,6930,6816,6712
13184,6713,6712,6816
13185,6826,6825,6931
13186,6824,6931,6825
13187,6932,6827,6931
13188,6826,6931,6827
13189,6933,6934,6932
13190,6934,6827,6932
13191,6934,6935,6827
13192,6827,6935,6828
13193,6935,6936,6828
13194,6829,6828,6936
13195,6937,6880,6938
13196,6881,6938,6880
13197,6939,6882,6937
13198,6937,6882,6880
13199,6882,6939,6883
13200,6940,6883,6939
13201,6941,6884,6940
13202,6883,6940,6884
13203,6942,6885,6941
13204,6941,6885,6884
13205,6888,6943,6853
13206,6854,6853,6943
13207,6943,6944,6854
13208,6855,6854,6944
13209,6944,6945,6855
13210,6855,6945,6856
13211,6946,6857,6945
13212,6856,6945,6857
13213,6947,6858,6946
13214,6857,6946,6858
13215,6947,6948,6858
13216,6859,6858,6948
13217,6861,6860,6948
13218,6948,6860,6859
13219,6949,6862,6948
13220,6861,6948,6862
13221,6950,6863,6949
13222,6949,6863,6862
13223,6951,6864,6950
13224,6863,6950,6864
13225,6952,6865,6951
13226,6864,6951,6865
13227,6865,6952,6866
13228,6868,6866,6952
13229,6953,6868,6954
13230,6952,6954,6868
13231,6955,6867,6953
13232,6953,6867,6868
13233,6867,6955,6869
13234,6956,6869,6955
13235,6870,6869,6957
13236,6956,6957,6869
13237,6871,6870,6958
13238,6958,6870,6957
13239,6873,6872,6959
13240,6959,6872,6960
13241,6874,6873,6890
13242,6959,6890,6873
13243,6848,6913,6849
13244,6961,6849,6913
13245,6849,6961,6851
13246,6962,6851,6961
13247,6851,6962,6963
13248,6963,6962,6964
13249,6850,6851,6965
13250,6963,6965,6851
13251,6852,6850,6966
13252,6965,6966,6850
13253,6966,6754,6852
13254,6852,6754,6753
13255,6890,6959,6891
13256,6967,6891,6959
13257,6891,6967,6892
13258,6968,6892,6967
13259,6892,6968,6893
13260,6969,6893,6968
13261,6893,6969,6894
13262,6970,6894,6969
13263,6894,6970,6895
13264,6971,6895,6970
13265,6895,6971,6896
13266,6972,6896,6971
13267,6896,6972,6914
13268,6915,6914,6972
13269,6943,6888,6973
13270,6889,6973,6888
13271,6887,6886,6897
13272,6898,6897,6886
13273,6898,6886,6942
13274,6885,6942,6886
13275,6942,6974,6898
13276,6899,6898,6974
13277,6900,6899,6975
13278,6975,6899,6974
13279,6975,6902,6900
13280,6901,6900,6902
13281,6976,6903,6975
13282,6902,6975,6903
13283,6977,6908,6978
13284,6907,6978,6908
13285,6979,6909,6977
13286,6908,6977,6909
13287,6979,6936,6909
13288,6910,6909,6936
13289,6936,6935,6910
13290,6910,6935,6911
13291,6935,6934,6911
13292,6980,6911,6934
13293,6972,6981,6915
13294,6916,6915,6981
13295,6981,6982,6916
13296,6917,6916,6982
13297,6982,6919,6917
13298,6918,6917,6919
13299,6983,6920,6982
13300,6919,6982,6920
13301,6984,6921,6983
13302,6920,6983,6921
13303,6985,6922,6984
13304,6984,6922,6921
13305,6986,6923,6985
13306,6922,6985,6923
13307,6923,6986,6925
13308,6987,6925,6986
13309,6958,6988,6987
13310,6925,6987,6988
13311,6924,6925,6989
13312,6988,6989,6925
13313,6926,6924,6990
13314,6989,6990,6924
13315,6927,6926,6991
13316,6991,6926,6990
13317,6928,6927,6992
13318,6991,6992,6927
13319,6929,6928,6993
13320,6993,6928,6992
13321,6930,6929,6994
13322,6929,6993,6994
13323,6816,6930,6995
13324,6930,6994,6995
13325,6816,6995,6817
13326,6996,6817,6995
13327,6997,6818,6996
13328,6817,6996,6818
13329,6998,6819,6997
13330,6997,6819,6818
13331,6999,6820,6998
13332,6820,6819,6998
13333,7000,6821,6999
13334,6999,6821,6820
13335,6821,7000,6822
13336,7001,6822,7000
13337,6822,7001,6823
13338,7002,6823,7001
13339,6931,6824,7002
13340,6823,7002,6824
13341,6871,7003,6872
13342,6960,6872,7003
13343,6871,6958,7003
13344,6987,7003,6958
13345,6932,6931,7004
13346,7002,7004,6931
13347,6933,6932,7005
13348,7004,7005,6932
13349,6962,6933,6964
13350,7005,6964,6933
13351,6962,6980,6933
13352,6934,6933,6980
13353,6938,6977,6937
13354,6978,6937,6977
13355,6937,6978,6939
13356,7006,6939,6978
13357,6941,7007,6942
13358,6974,6942,7007
13359,6975,6974,6976
13360,7007,6976,6974
13361,6754,6966,6755
13362,7008,6755,6966
13363,6755,7008,6756
13364,7009,6756,7008
13365,6756,7009,6757
13366,7010,6757,7009
13367,6757,7010,6759
13368,7011,6759,7010
13369,6759,7011,7012
13370,7011,7013,7012
13371,6758,6759,7014
13372,7014,6759,7012
13373,7015,6760,7014
13374,6758,7014,6760
13375,7016,6761,7015
13376,6760,7015,6761
13377,6762,6761,7017
13378,7017,6761,7016
13379,6763,6762,7018
13380,7017,7018,6762
13381,7019,6764,7018
13382,6764,6763,7018
13383,6973,7020,6943
13384,6944,6943,7020
13385,6945,6944,7021
13386,7020,7021,6944
13387,7022,6946,7021
13388,6945,7021,6946
13389,6947,7023,6948
13390,6949,6948,7023
13391,7023,7024,6949
13392,6949,7024,6950
13393,6951,6950,7025
13394,7025,6950,7024
13395,6952,6951,7026
13396,7025,7026,6951
13397,6952,7026,6954
13398,7027,6954,7026
13399,6959,6960,6967
13400,7028,6967,6960
13401,7029,6968,7028
13402,6967,7028,6968
13403,6968,7029,6969
13404,6969,7029,7030
13405,6969,7030,6970
13406,7030,7031,6970
13407,6970,7031,6971
13408,7032,6971,7031
13409,6971,7032,6972
13410,6981,6972,7032
13411,6965,6963,7033
13412,7033,6963,7034
13413,6966,6965,7035
13414,7033,7035,6965
13415,6966,7035,7008
13416,7008,7035,7036
13417,7008,7036,7009
13418,7036,7037,7009
13419,7009,7037,7010
13420,7010,7037,7038
13421,7010,7038,7011
13422,7011,7038,7039
13423,7011,7039,7013
13424,7040,7013,7039
13425,7013,7040,7041
13426,7042,7041,7040
13427,7012,7013,7043
13428,7041,7043,7013
13429,7044,7014,7043
13430,7012,7043,7014
13431,7045,7015,7044
13432,7014,7044,7015
13433,7046,7016,7045
13434,7015,7045,7016
13435,7017,7016,7047
13436,7046,7047,7016
13437,7018,7017,7048
13438,7047,7048,7017
13439,7019,7018,7049
13440,7048,7049,7018
13441,7019,7049,6973
13442,7020,6973,7049
13443,7001,7050,7002
13444,7004,7002,7050
13445,7050,7051,7004
13446,7005,7004,7051
13447,7052,7053,7034
13448,7033,7034,7053
13449,7035,7033,7054
13450,7053,7054,7033
13451,7036,7035,7055
13452,7035,7054,7055
13453,7036,7055,7037
13454,7056,7037,7055
13455,7037,7056,7038
13456,7057,7038,7056
13457,7038,7057,7039
13458,7058,7039,7057
13459,7039,7058,7040
13460,7059,7040,7058
13461,7040,7059,7042
13462,7060,7042,7059
13463,7042,7060,7061
13464,7062,7061,7060
13465,7063,7041,7061
13466,7042,7061,7041
13467,7064,7043,7063
13468,7041,7063,7043
13469,7065,7044,7064
13470,7064,7044,7043
13471,7066,7045,7065
13472,7044,7065,7045
13473,7067,7046,7066
13474,7045,7066,7046
13475,7022,7047,7067
13476,7046,7067,7047
13477,7047,7022,7048
13478,7021,7048,7022
13479,6947,7067,7023
13480,7066,7023,7067
13481,7023,7066,7024
13482,7065,7024,7066
13483,7024,7065,7025
13484,7064,7025,7065
13485,7021,7020,7048
13486,7049,7048,7020
13487,7026,7025,7063
13488,7063,7025,7064
13489,7063,7061,7026
13490,7027,7026,7061
13491,7061,7062,7027
13492,7068,7027,7062
13493,7027,7068,6954
13494,7069,6954,7068
13495,6954,7069,6953
13496,7070,6953,7069
13497,7070,7071,6953
13498,6955,6953,7071
13499,7071,7072,6955
13500,6956,6955,7072
13501,6957,6956,7073
13502,7073,6956,7072
13503,7032,6983,6981
13504,6982,6981,6983
13505,7031,6984,7032
13506,6983,7032,6984
13507,7030,6985,7031
13508,7031,6985,6984
13509,6957,7073,6958
13510,6988,6958,7073
13511,6985,7030,6986
13512,7029,6986,7030
13513,6986,7074,6987
13514,7003,6987,7074
13515,6960,7003,7028
13516,7003,7074,7028
13517,6986,7029,7074
13518,7028,7074,7029
13519,6989,6988,7072
13520,7073,7072,6988
13521,6990,6989,7071
13522,7072,7071,6989
13523,7070,6991,7071
13524,6990,7071,6991
13525,7070,7075,6991
13526,6992,6991,7075
13527,6993,6992,7076
13528,7075,7076,6992
13529,6994,6993,7077
13530,7076,7077,6993
13531,6995,6994,7078
13532,7077,7078,6994
13533,6995,7078,6996
13534,7079,6996,7078
13535,7080,6997,7079
13536,6996,7079,6997
13537,7080,7081,6997
13538,6997,7081,6998
13539,7082,6999,7081
13540,6998,7081,6999
13541,7082,7083,6999
13542,7000,6999,7083
13543,7083,7050,7000
13544,7001,7000,7050
13545,7050,7083,7051
13546,7052,7051,7083
13547,7083,7082,7052
13548,7052,7082,7053
13549,7054,7053,7084
13550,7082,7084,7053
13551,7054,7084,7055
13552,7055,7084,7085
13553,7055,7085,7056
13554,7086,7056,7085
13555,7057,7056,7087
13556,7086,7087,7056
13557,7057,7087,7058
13558,7058,7087,7088
13559,7089,7059,7088
13560,7058,7088,7059
13561,7090,7060,7089
13562,7059,7089,7060
13563,7090,7091,7060
13564,7062,7060,7091
13565,7062,7091,7068
13566,7092,7068,7091
13567,7068,7092,7069
13568,7093,7069,7092
13569,7069,7093,7070
13570,7075,7070,7093
13571,7076,7075,7092
13572,7092,7075,7093
13573,7077,7076,7091
13574,7092,7091,7076
13575,7078,7077,7090
13576,7091,7090,7077
13577,7078,7090,7079
13578,7089,7079,7090
13579,7079,7089,7080
13580,7088,7080,7089
13581,7081,7085,7082
13582,7084,7082,7085
13583,6259,6257,6261
13584,6263,6261,6257
13585,6261,6121,6259
13586,6122,6259,6121
13587,6260,5994,6011
13588,5993,6011,5994
13589,6260,6011,6261
13590,6121,6261,6011
13591,6023,6022,7094
13592,7094,6022,6281
13593,6283,6024,7094
13594,6023,7094,6024
13595,6518,6283,7095
13596,7094,7095,6283
13597,7095,7094,6517
13598,6281,6517,7094
13599,6766,7095,6752
13600,6517,6752,7095
13601,6768,6518,6766
13602,7095,6766,6518
13603,7096,6352,6538
13604,6351,6538,6352
13605,7096,6530,6352
13606,6353,6352,6530
13607,6815,6540,7096
13608,6530,7096,6540
13609,6815,7096,6537
13610,6538,6537,7096
13611,6224,6385,6225
13612,7097,6225,6385
13613,6378,6226,7097
13614,6225,7097,6226
13615,6378,7097,6379
13616,6385,6379,7097
13617,6494,6493,6627
13618,6597,6627,6493
13619,6596,6628,6597
13620,6627,6597,6628
13621,6492,6491,6591
13622,6592,6591,6491
13623,6591,6597,6492
13624,6493,6492,6597
13625,6669,6505,6668
13626,7098,6668,6505
13627,6270,6269,7098
13628,6668,7098,6269
13629,6270,7098,6271
13630,6505,6271,7098
13631,6501,7099,6502
13632,6631,6502,7099
13633,6500,7100,6501
13634,7099,6501,7100
13635,7100,6500,6630
13636,6630,6500,6499
13637,6389,6631,6390
13638,7099,6390,6631
13639,7100,6391,7099
13640,6390,7099,6391
13641,6391,7100,6392
13642,6630,6392,7100
13643,7101,6768,6765
13644,6766,6765,6768
13645,6889,6767,7101
13646,6768,7101,6767
13647,7019,6973,7101
13648,6889,7101,6973
13649,7019,7101,6764
13650,6765,6764,7101
13651,6913,6912,6961
13652,7102,6961,6912
13653,6980,6962,7102
13654,6961,7102,6962
13655,6911,6980,6912
13656,7102,6912,6980
13657,6830,6979,6938
13658,6977,6938,6979
13659,6830,6829,6979
13660,6829,6936,6979
13661,6881,6730,7103
13662,6729,7103,6730
13663,6938,6881,6830
13664,7103,6830,6881
13665,6728,6727,7103
13666,6830,7103,6727
13667,6978,6907,7006
13668,6906,7006,6907
13669,6963,6964,7034
13670,7104,7034,6964
13671,7051,7052,7104
13672,7034,7104,7052
13673,7051,7104,7005
13674,6964,7005,7104
13675,7006,6906,7105
13676,6905,7105,6906
13677,6904,7106,6905
13678,7105,6905,7106
13679,6903,6976,6904
13680,7106,6904,6976
13681,6939,7006,6940
13682,6940,7006,7105
13683,6940,7105,6941
13684,6941,7105,7106
13685,6976,7007,7106
13686,6941,7106,7007
13687,7067,6947,7022
13688,6947,6946,7022
13689,7080,7086,7081
13690,7081,7086,7085
13691,7080,7088,7086
13692,7088,7087,7086
13693,5994,6260,6057
13694,6057,6260,6264
13695,7103,6729,6728
13696,7107,6728,6729
13697,6601,6600,7107
13698,6728,7107,6600
13699,6601,7107,6602
13700,6729,6602,7107
13701,5218,5217,7108
13702,7109,7108,5217
13703,5379,5218,7110
13704,7108,7110,5218
13705,7110,7108,7111
13706,7112,7111,7108
13707,7108,7109,7112
13708,7113,7112,7109
13709,7114,7113,7115
13710,7109,7115,7113
13711,7116,7117,7115
13712,7114,7115,7117
13713,7117,7116,7118
13714,7119,7118,7116
13715,7118,7119,7120
13716,7121,7120,7119
13717,7122,7123,7121
13718,7120,7121,7123
13719,7123,7122,7124
13720,7125,7124,7122
13721,7124,7125,7126
13722,7127,7126,7125
13723,7126,7127,7128
13724,7129,7128,7127
13725,7129,7130,7128
13726,7131,7128,7130
13727,7132,7133,7130
13728,7131,7130,7133
13729,7134,7135,7132
13730,7133,7132,7135
13731,7135,7134,7136
13732,7136,7134,7137
13733,7138,7136,7139
13734,7137,7139,7136
13735,7138,7139,7140
13736,7141,7140,7139
13737,7141,7142,7140
13738,7143,7140,7142
13739,7144,7145,7142
13740,7142,7145,7143
13741,7144,7146,7145
13742,7147,7145,7146
13743,7148,7147,7149
13744,7149,7147,7146
13745,7147,7148,7150
13746,7151,7150,7148
13747,7152,7150,7153
13748,7151,7153,7150
13749,7154,7152,7155
13750,7153,7155,7152
13751,7154,7155,7156
13752,7157,7156,7155
13753,7156,7157,7158
13754,7159,7158,7157
13755,7159,7160,7158
13756,7161,7158,7160
13757,7161,7160,7162
13758,7163,7162,7160
13759,7162,7163,7164
13760,7164,7163,7165
13761,7166,7167,7165
13762,7165,7167,7164
13763,7167,7166,7168
13764,7169,7168,7166
13765,7168,7169,7170
13766,7171,7170,7169
13767,7171,7172,7170
13768,7173,7170,7172
13769,7172,7174,7173
13770,7175,7173,7174
13771,7174,7176,7175
13772,7177,7175,7176
13773,7178,7177,7179
13774,7176,7179,7177
13775,7180,5341,7181
13776,5342,7181,5341
13777,7181,5342,7182
13778,5343,7182,5342
13779,7182,5343,7183
13780,5346,7183,5343
13781,5346,5348,7183
13782,7184,7183,5348
13783,5348,5350,7184
13784,7185,7184,5350
13785,5350,5352,7185
13786,7186,7185,5352
13787,7187,7186,5354
13788,5352,5354,7186
13789,5354,5356,7187
13790,7188,7187,5356
13791,7189,7188,5358
13792,5356,5358,7188
13793,5358,5360,7189
13794,7190,7189,5360
13795,7191,7190,5362
13796,5360,5362,7190
13797,7192,7191,5363
13798,5362,5363,7191
13799,7193,7192,5366
13800,5363,5366,7192
13801,7194,7193,5367
13802,5367,7193,5366
13803,7195,7194,5370
13804,5367,5370,7194
13805,7196,7195,5371
13806,5370,5371,7195
13807,7197,7196,5373
13808,5371,5373,7196
13809,7198,7197,5375
13810,5373,5375,7197
13811,7199,7198,5377
13812,5375,5377,7198
13813,7110,7199,5379
13814,5377,5379,7199
13815,7178,7179,7200
13816,7201,7200,7179
13817,7202,7200,7203
13818,7201,7203,7200
13819,7204,7202,7205
13820,7205,7202,7203
13821,7204,7205,7206
13822,7207,7206,7205
13823,7206,7207,7208
13824,7208,7207,7209
13825,7210,7211,7209
13826,7211,7208,7209
13827,7211,7210,7212
13828,7213,7212,7210
13829,7214,7212,7215
13830,7215,7212,7213
13831,7214,7215,7216
13832,7215,7217,7216
13833,7218,7219,7217
13834,7216,7217,7219
13835,7219,7218,7220
13836,7221,7220,7218
13837,7222,7223,7221
13838,7221,7223,7220
13839,7223,7222,7224
13840,7225,7224,7222
13841,7226,7227,7225
13842,7225,7227,7224
13843,7227,7226,7228
13844,7229,7228,7226
13845,7230,7231,7229
13846,7231,7228,7229
13847,7231,7230,7232
13848,7233,7232,7230
13849,7232,7233,7234
13850,7235,7234,7233
13851,7236,7237,7235
13852,7234,7235,7237
13853,7236,7238,7237
13854,7239,7237,7238
13855,7240,7239,7241
13856,7238,7241,7239
13857,7241,7242,7240
13858,7243,7240,7242
13859,7242,7244,7243
13860,7245,7243,7244
13861,7246,7247,7244
13862,7245,7244,7247
13863,7248,7249,7246
13864,7249,7247,7246
13865,7250,7251,7248
13866,7251,7249,7248
13867,7251,7250,7252
13868,7253,7252,7250
13869,7254,7252,7255
13870,7253,7255,7252
13871,7256,7254,7257
13872,7255,7257,7254
13873,7257,7258,7256
13874,7259,7256,7258
13875,7258,7260,7259
13876,7261,7259,7260
13877,7260,7262,7261
13878,7263,7261,7262
13879,7262,7264,7263
13880,7265,7263,7264
13881,7264,7266,7265
13882,7267,7265,7266
13883,7266,7268,7267
13884,7269,7267,7268
13885,7270,7271,7268
13886,7268,7271,7269
13887,7270,7272,7271
13888,7273,7271,7272
13889,7272,7274,7273
13890,7275,7273,7274
13891,7274,7276,7275
13892,7277,7275,7276
13893,7276,7278,7277
13894,7279,7277,7278
13895,7280,7279,7281
13896,7278,7281,7279
13897,7281,7282,7280
13898,7283,7280,7282
13899,7284,7283,7285
13900,7282,7285,7283
13901,7286,7284,7287
13902,7285,7287,7284
13903,7288,7286,7289
13904,7287,7289,7286
13905,7290,7288,7291
13906,7289,7291,7288
13907,7292,7290,7293
13908,7291,7293,7290
13909,7294,7292,7295
13910,7293,7295,7292
13911,7296,7294,7297
13912,7297,7294,7295
13913,7296,7297,7298
13914,7299,7298,7297
13915,3,7298,1
13916,7299,1,7298
13917,974,7300,975
13918,7301,975,7300
13919,7302,7303,7300
13920,7301,7300,7303
13921,7302,7304,7303
13922,7305,7303,7304
13923,7306,7307,7304
13924,7305,7304,7307
13925,7308,7307,7309
13926,7306,7309,7307
13927,7310,7311,7309
13928,7308,7309,7311
13929,7312,7311,7313
13930,7310,7313,7311
13931,7314,7315,7313
13932,7312,7313,7315
13933,7316,7315,7317
13934,7314,7317,7315
13935,7317,7318,7316
13936,7319,7316,7318
13937,7318,7320,7319
13938,7321,7319,7320
13939,7322,7321,7323
13940,7320,7323,7321
13941,7323,7324,7322
13942,7324,7325,7322
13943,7326,7325,7327
13944,7325,7324,7327
13945,7327,7328,7326
13946,7329,7326,7328
13947,7330,7329,7331
13948,7328,7331,7329
13949,7331,7332,7330
13950,7333,7330,7332
13951,7334,7333,7335
13952,7335,7333,7332
13953,7335,7336,7334
13954,7336,7337,7334
13955,7338,7337,7339
13956,7336,7339,7337
13957,7339,7340,7338
13958,7341,7338,7340
13959,7342,7341,7343
13960,7340,7343,7341
13961,7343,7344,7342
13962,7345,7342,7344
13963,7346,7345,7347
13964,7344,7347,7345
13965,7347,7348,7346
13966,7349,7346,7348
13967,7350,7349,7351
13968,7351,7349,7348
13969,7351,7352,7350
13970,7352,7353,7350
13971,7353,7352,7354
13972,7355,7354,7352
13973,7355,7356,7354
13974,7357,7354,7356
13975,7357,7356,7358
13976,7359,7358,7356
13977,7360,7361,7359
13978,7358,7359,7361
13979,7361,7360,7362
13980,7363,7362,7360
13981,7363,7364,7362
13982,7362,7364,7365
13983,7365,7364,7366
13984,7367,7366,7364
13985,7367,7368,7366
13986,7369,7366,7368
13987,7369,7368,7370
13988,7371,7370,7368
13989,7371,7372,7370
13990,7373,7370,7372
13991,7373,7372,7374
13992,7375,7374,7372
13993,7375,7376,7374
13994,7376,7377,7374
13995,7377,7376,7378
13996,7378,7376,7379
13997,7379,7380,7378
13998,7378,7380,7381
13999,7382,7381,7383
14000,7380,7383,7381
14001,7383,7384,7382
14002,7384,7385,7382
14003,7386,7385,7387
14004,7387,7385,7384
14005,7387,7388,7386
14006,7389,7386,7388
14007,7390,7389,7391
14008,7388,7391,7389
14009,7391,7180,7390
14010,7181,7390,7180
14011,7298,3,7392
14012,313,7392,3
14013,7392,313,7393
14014,465,7393,313
14015,7393,465,7394
14016,996,7394,465
14017,7394,996,7395
14018,994,7395,996
14019,7395,994,7396
14020,992,7396,994
14021,7396,992,7397
14022,990,7397,992
14023,7397,990,7398
14024,988,7398,990
14025,7398,988,7399
14026,7399,988,986
14027,7399,986,7400
14028,984,7400,986
14029,7401,7400,983
14030,984,983,7400
14031,983,980,7401
14032,7402,7401,980
14033,7403,7402,978
14034,978,7402,980
14035,7404,7403,977
14036,978,977,7403
14037,975,7301,977
14038,7301,7404,977
14039,7405,7112,7114
14040,7113,7114,7112
14041,7405,7114,7406
14042,7117,7406,7114
14043,7407,7406,7118
14044,7117,7118,7406
14045,7407,7118,7408
14046,7120,7408,7118
14047,7408,7120,7409
14048,7123,7409,7120
14049,7409,7123,7410
14050,7124,7410,7123
14051,7410,7124,7411
14052,7124,7126,7411
14053,7411,7126,7412
14054,7128,7412,7126
14055,7413,7412,7131
14056,7128,7131,7412
14057,7133,7414,7131
14058,7413,7131,7414
14059,7414,7133,7415
14060,7135,7415,7133
14061,7415,7135,7416
14062,7136,7416,7135
14063,7417,7416,7138
14064,7136,7138,7416
14065,7417,7138,7418
14066,7418,7138,7140
14067,7418,7140,7419
14068,7143,7419,7140
14069,7145,7420,7143
14070,7419,7143,7420
14071,7147,7150,7145
14072,7420,7145,7150
14073,7421,7420,7152
14074,7150,7152,7420
14075,7422,7421,7154
14076,7152,7154,7421
14077,7422,7154,7423
14078,7156,7423,7154
14079,7423,7156,7424
14080,7158,7424,7156
14081,7424,7158,7425
14082,7161,7425,7158
14083,7162,7426,7161
14084,7425,7161,7426
14085,7164,7427,7162
14086,7426,7162,7427
14087,7167,7428,7164
14088,7427,7164,7428
14089,7168,7429,7167
14090,7428,7167,7429
14091,7430,7170,7431
14092,7173,7431,7170
14093,7173,7175,7431
14094,7432,7431,7175
14095,7433,7432,7177
14096,7175,7177,7432
14097,7177,7178,7433
14098,7434,7433,7178
14099,7200,7435,7178
14100,7434,7178,7435
14101,7202,7204,7436
14102,7437,7436,7204
14103,7437,7204,7438
14104,7438,7204,7206
14105,7208,7439,7206
14106,7438,7206,7439
14107,7211,7440,7208
14108,7439,7208,7440
14109,7441,7442,7214
14110,7214,7442,7212
14111,7214,7216,7441
14112,7443,7441,7216
14113,7216,7219,7443
14114,7444,7443,7219
14115,7445,7444,7220
14116,7219,7220,7444
14117,7223,7446,7220
14118,7445,7220,7446
14119,7446,7223,7447
14120,7224,7447,7223
14121,7227,7448,7224
14122,7224,7448,7447
14123,7228,7449,7227
14124,7448,7227,7449
14125,7231,7450,7228
14126,7449,7228,7450
14127,7450,7231,7451
14128,7232,7451,7231
14129,7451,7232,7452
14130,7234,7452,7232
14131,7237,7453,7234
14132,7452,7234,7453
14133,7237,7239,7453
14134,7454,7453,7239
14135,7455,7454,7240
14136,7239,7240,7454
14137,7455,7240,7456
14138,7243,7456,7240
14139,7456,7247,7457
14140,7249,7457,7247
14141,7457,7249,7458
14142,7251,7458,7249
14143,7252,7459,7251
14144,7458,7251,7459
14145,7252,7254,7459
14146,7460,7459,7254
14147,7254,7256,7460
14148,7461,7460,7256
14149,7256,7259,7461
14150,7462,7461,7259
14151,7259,7261,7462
14152,7463,7462,7261
14153,7261,7263,7463
14154,7463,7263,7464
14155,7263,7265,7464
14156,7465,7464,7265
14157,7265,7267,7465
14158,7466,7465,7267
14159,7467,7466,7269
14160,7267,7269,7466
14161,7468,7467,7271
14162,7269,7271,7467
14163,7469,7468,7273
14164,7271,7273,7468
14165,7273,7275,7469
14166,7275,7470,7469
14167,7471,7470,7277
14168,7277,7470,7275
14169,7471,7277,7472
14170,7279,7472,7277
14171,7472,7279,7473
14172,7280,7473,7279
14173,7280,7283,7473
14174,7474,7473,7283
14175,7475,7474,7284
14176,7284,7474,7283
14177,7476,7475,7286
14178,7284,7286,7475
14179,7286,7288,7476
14180,7477,7476,7288
14181,7478,7477,7290
14182,7288,7290,7477
14183,7479,7478,7292
14184,7290,7292,7478
14185,7480,7479,7294
14186,7292,7294,7479
14187,7481,7480,7296
14188,7294,7296,7480
14189,7481,7296,7392
14190,7298,7392,7296
14191,7211,7212,7482
14192,7482,7212,7442
14193,7482,7483,7211
14194,7440,7211,7483
14195,7170,7430,7168
14196,7484,7168,7430
14197,7168,7484,7429
14198,7485,7429,7484
14199,7200,7202,7486
14200,7436,7486,7202
14201,7200,7486,7435
14202,7487,7435,7486
14203,7303,7488,7301
14204,7404,7301,7488
14205,7305,7489,7303
14206,7488,7303,7489
14207,7307,7490,7305
14208,7489,7305,7490
14209,7308,7491,7307
14210,7490,7307,7491
14211,7491,7308,7492
14212,7492,7308,7311
14213,7311,7312,7492
14214,7492,7312,7493
14215,7315,7494,7312
14216,7493,7312,7494
14217,7315,7316,7494
14218,7495,7494,7316
14219,7319,7496,7316
14220,7495,7316,7496
14221,7319,7321,7496
14222,7321,7497,7496
14223,7321,7322,7497
14224,7497,7322,7498
14225,7322,7325,7498
14226,7499,7498,7325
14227,7325,7326,7499
14228,7500,7499,7326
14229,7326,7329,7500
14230,7501,7500,7329
14231,7329,7330,7501
14232,7330,7502,7501
14233,7330,7333,7502
14234,7503,7502,7333
14235,7333,7334,7503
14236,7504,7503,7334
14237,7334,7337,7504
14238,7505,7504,7337
14239,7337,7338,7505
14240,7506,7505,7338
14241,7338,7341,7506
14242,7507,7506,7341
14243,7341,7342,7507
14244,7508,7507,7342
14245,7342,7345,7508
14246,7509,7508,7345
14247,7345,7346,7509
14248,7510,7509,7346
14249,7346,7349,7510
14250,7511,7510,7349
14251,7349,7350,7511
14252,7512,7511,7350
14253,7350,7353,7512
14254,7513,7512,7353
14255,7354,7514,7353
14256,7513,7353,7514
14257,7357,7515,7354
14258,7514,7354,7515
14259,7358,7516,7357
14260,7357,7516,7515
14261,7516,7358,7517
14262,7361,7517,7358
14263,7362,7518,7361
14264,7517,7361,7518
14265,7518,7362,7519
14266,7519,7362,7365
14267,7366,7520,7365
14268,7519,7365,7520
14269,7366,7369,7520
14270,7521,7520,7369
14271,7370,7522,7369
14272,7521,7369,7522
14273,7370,7373,7522
14274,7523,7522,7373
14275,7374,7524,7373
14276,7523,7373,7524
14277,7374,7377,7524
14278,7524,7377,7525
14279,7377,7378,7525
14280,7526,7525,7378
14281,7378,7381,7526
14282,7527,7526,7381
14283,7381,7382,7527
14284,7528,7527,7382
14285,7382,7385,7528
14286,7529,7528,7385
14287,7385,7386,7529
14288,7386,7530,7529
14289,7386,7389,7530
14290,7389,7531,7530
14291,7389,7390,7531
14292,7532,7531,7390
14293,7390,7181,7532
14294,7182,7532,7181
14295,7532,7182,7533
14296,7183,7533,7182
14297,7533,7183,7534
14298,7534,7183,7184
14299,7534,7184,7535
14300,7185,7535,7184
14301,7535,7185,7536
14302,7186,7536,7185
14303,7187,7537,7186
14304,7536,7186,7537
14305,7537,7187,7538
14306,7538,7187,7188
14307,7539,7538,7189
14308,7188,7189,7538
14309,7540,7539,7190
14310,7189,7190,7539
14311,7541,7540,7191
14312,7190,7191,7540
14313,7542,7541,7192
14314,7191,7192,7541
14315,7543,7542,7193
14316,7193,7542,7192
14317,7193,7194,7543
14318,7194,7544,7543
14319,7545,7544,7195
14320,7195,7544,7194
14321,7546,7545,7196
14322,7195,7196,7545
14323,7196,7197,7546
14324,7546,7197,7547
14325,7548,7547,7198
14326,7197,7198,7547
14327,7549,7548,7199
14328,7198,7199,7548
14329,7111,7549,7110
14330,7199,7110,7549
14331,7393,7550,7392
14332,7481,7392,7550
14333,7550,7393,7551
14334,7394,7551,7393
14335,7395,7552,7394
14336,7551,7394,7552
14337,7552,7395,7553
14338,7396,7553,7395
14339,7553,7396,7554
14340,7397,7554,7396
14341,7554,7397,7555
14342,7398,7555,7397
14343,7555,7398,7556
14344,7556,7398,7399
14345,7556,7399,7557
14346,7400,7557,7399
14347,7557,7400,7558
14348,7401,7558,7400
14349,7558,7401,7559
14350,7402,7559,7401
14351,7403,7560,7402
14352,7559,7402,7560
14353,7488,7560,7404
14354,7403,7404,7560
14355,7418,7419,7421
14356,7420,7421,7419
14357,7417,7418,7422
14358,7422,7418,7421
14359,7417,7422,7561
14360,7561,7422,7423
14361,7424,7562,7423
14362,7561,7423,7562
14363,7562,7424,7563
14364,7425,7563,7424
14365,7426,7564,7425
14366,7563,7425,7564
14367,7564,7426,7565
14368,7427,7565,7426
14369,7428,7566,7427
14370,7565,7427,7566
14371,7429,7567,7428
14372,7566,7428,7567
14373,7429,7485,7567
14374,7568,7567,7485
14375,7569,7568,7570
14376,7485,7570,7568
14377,7484,7571,7485
14378,7570,7485,7571
14379,7430,7572,7484
14380,7571,7484,7572
14381,7431,7573,7430
14382,7430,7573,7572
14383,7431,7432,7573
14384,7574,7573,7432
14385,7432,7433,7574
14386,7574,7433,7575
14387,7433,7434,7575
14388,7576,7575,7434
14389,7434,7435,7576
14390,7577,7576,7435
14391,7435,7487,7577
14392,7578,7577,7487
14393,7579,7580,7487
14394,7578,7487,7580
14395,7486,7581,7487
14396,7579,7487,7581
14397,7486,7436,7581
14398,7582,7581,7436
14399,7583,7582,7437
14400,7436,7437,7582
14401,7583,7437,7584
14402,7438,7584,7437
14403,7439,7585,7438
14404,7584,7438,7585
14405,7440,7586,7439
14406,7585,7439,7586
14407,7483,7587,7440
14408,7586,7440,7587
14409,7483,7588,7587
14410,7589,7587,7588
14411,7588,7483,7590
14412,7482,7590,7483
14413,7482,7442,7590
14414,7591,7590,7442
14415,7592,7591,7441
14416,7591,7442,7441
14417,7593,7592,7443
14418,7441,7443,7592
14419,7443,7444,7593
14420,7594,7593,7444
14421,7444,7445,7594
14422,7594,7445,7595
14423,7596,7595,7446
14424,7445,7446,7595
14425,7596,7446,7448
14426,7447,7448,7446
14427,7596,7448,7597
14428,7449,7597,7448
14429,7597,7449,7598
14430,7450,7598,7449
14431,7598,7450,7599
14432,7451,7599,7450
14433,7455,7456,7600
14434,7456,7457,7600
14435,7600,7457,7601
14436,7458,7601,7457
14437,7459,7602,7458
14438,7458,7602,7601
14439,7459,7460,7602
14440,7603,7602,7460
14441,7460,7461,7603
14442,7604,7603,7461
14443,7461,7462,7604
14444,7605,7604,7462
14445,7606,7605,7463
14446,7462,7463,7605
14447,7607,7606,7464
14448,7463,7464,7606
14449,7608,7607,7465
14450,7607,7464,7465
14451,7608,7465,7467
14452,7466,7467,7465
14453,7609,7608,7468
14454,7467,7468,7608
14455,7610,7609,7469
14456,7468,7469,7609
14457,7469,7470,7610
14458,7611,7610,7470
14459,7612,7611,7471
14460,7470,7471,7611
14461,7613,7612,7472
14462,7471,7472,7612
14463,7472,7473,7613
14464,7614,7613,7473
14465,7474,7615,7473
14466,7614,7473,7615
14467,7475,7616,7474
14468,7474,7616,7615
14469,7617,7616,7476
14470,7475,7476,7616
14471,7476,7477,7617
14472,7618,7617,7477
14473,7477,7478,7618
14474,7619,7618,7478
14475,7478,7479,7619
14476,7620,7619,7479
14477,7621,7620,7480
14478,7479,7480,7620
14479,7481,7622,7480
14480,7621,7480,7622
14481,7481,7550,7622
14482,7623,7622,7550
14483,7550,7551,7623
14484,7624,7623,7551
14485,7625,7624,7552
14486,7551,7552,7624
14487,7552,7553,7625
14488,7553,7626,7625
14489,7553,7554,7626
14490,7627,7626,7554
14491,7628,7627,7555
14492,7554,7555,7627
14493,7555,7556,7628
14494,7629,7628,7556
14495,7556,7557,7629
14496,7630,7629,7557
14497,7557,7558,7630
14498,7558,7631,7630
14499,7558,7559,7631
14500,7632,7631,7559
14501,7559,7560,7632
14502,7633,7632,7560
14503,7560,7488,7633
14504,7489,7633,7488
14505,7111,7112,7634
14506,7405,7634,7112
14507,7634,7405,7635
14508,7406,7635,7405
14509,7406,7407,7635
14510,7636,7635,7407
14511,7636,7407,7637
14512,7408,7637,7407
14513,7637,7408,7638
14514,7409,7638,7408
14515,7638,7409,7639
14516,7410,7639,7409
14517,7639,7410,7640
14518,7411,7640,7410
14519,7640,7411,7641
14520,7412,7641,7411
14521,7642,7641,7413
14522,7412,7413,7641
14523,7414,7643,7413
14524,7642,7413,7643
14525,7643,7414,7644
14526,7415,7644,7414
14527,7416,7645,7415
14528,7644,7415,7645
14529,7416,7417,7645
14530,7561,7645,7417
14531,7531,7532,7646
14532,7533,7646,7532
14533,7646,7533,7647
14534,7534,7647,7533
14535,7647,7534,7648
14536,7534,7535,7648
14537,7648,7535,7649
14538,7536,7649,7535
14539,7649,7536,7650
14540,7537,7650,7536
14541,7538,7651,7537
14542,7650,7537,7651
14543,7651,7538,7652
14544,7539,7652,7538
14545,7540,7653,7539
14546,7653,7652,7539
14547,7653,7540,7654
14548,7541,7654,7540
14549,7542,7655,7541
14550,7654,7541,7655
14551,7655,7542,7656
14552,7542,7543,7656
14553,7544,7657,7543
14554,7657,7656,7543
14555,7545,7658,7544
14556,7658,7657,7544
14557,7658,7545,7659
14558,7546,7659,7545
14559,7659,7546,7660
14560,7547,7660,7546
14561,7548,7661,7547
14562,7660,7547,7661
14563,7661,7548,7662
14564,7549,7662,7548
14565,7634,7662,7111
14566,7549,7111,7662
14567,7633,7489,7663
14568,7663,7489,7490
14569,7663,7490,7664
14570,7664,7490,7491
14571,7492,7665,7491
14572,7665,7664,7491
14573,7493,7666,7492
14574,7665,7492,7666
14575,7494,7667,7493
14576,7666,7493,7667
14577,7494,7495,7667
14578,7668,7667,7495
14579,7496,7669,7495
14580,7495,7669,7668
14581,7496,7497,7669
14582,7670,7669,7497
14583,7497,7498,7670
14584,7671,7670,7498
14585,7498,7499,7671
14586,7672,7671,7499
14587,7499,7500,7672
14588,7672,7500,7673
14589,7500,7501,7673
14590,7674,7673,7501
14591,7501,7502,7674
14592,7675,7674,7502
14593,7502,7503,7675
14594,7676,7675,7503
14595,7503,7504,7676
14596,7677,7676,7504
14597,7504,7505,7677
14598,7678,7677,7505
14599,7505,7506,7678
14600,7506,7679,7678
14601,7506,7507,7679
14602,7680,7679,7507
14603,7507,7508,7680
14604,7681,7680,7508
14605,7508,7509,7681
14606,7682,7681,7509
14607,7509,7510,7682
14608,7510,7683,7682
14609,7510,7511,7683
14610,7684,7683,7511
14611,7511,7512,7684
14612,7685,7684,7512
14613,7513,7686,7512
14614,7512,7686,7685
14615,7514,7687,7513
14616,7686,7513,7687
14617,7515,7688,7514
14618,7687,7514,7688
14619,7516,7689,7515
14620,7688,7515,7689
14621,7517,7690,7516
14622,7689,7516,7690
14623,7518,7691,7517
14624,7690,7517,7691
14625,7519,7692,7518
14626,7691,7518,7692
14627,7520,7693,7519
14628,7692,7519,7693
14629,7521,7694,7520
14630,7693,7520,7694
14631,7522,7695,7521
14632,7694,7521,7695
14633,7522,7523,7695
14634,7523,7696,7695
14635,7523,7524,7696
14636,7696,7524,7697
14637,7524,7525,7697
14638,7697,7525,7698
14639,7525,7526,7698
14640,7526,7699,7698
14641,7526,7527,7699
14642,7700,7699,7527
14643,7527,7528,7700
14644,7700,7528,7701
14645,7528,7529,7701
14646,7702,7701,7529
14647,7529,7530,7702
14648,7703,7702,7530
14649,7530,7531,7703
14650,7646,7703,7531
14651,7562,7704,7561
14652,7645,7561,7704
14653,7563,7705,7562
14654,7704,7562,7705
14655,7706,7705,7564
14656,7563,7564,7705
14657,7706,7564,7707
14658,7565,7707,7564
14659,7565,7566,7707
14660,7708,7707,7566
14661,7566,7567,7708
14662,7709,7708,7567
14663,7567,7568,7709
14664,7568,7710,7709
14665,7711,7710,7569
14666,7568,7569,7710
14667,7569,7712,7711
14668,7713,7711,7712
14669,7570,7714,7569
14670,7712,7569,7714
14671,7571,7715,7570
14672,7714,7570,7715
14673,7572,7716,7571
14674,7715,7571,7716
14675,7573,7717,7572
14676,7572,7717,7716
14677,7573,7574,7717
14678,7718,7717,7574
14679,7574,7575,7718
14680,7719,7718,7575
14681,7720,7719,7576
14682,7575,7576,7719
14683,7720,7576,7721
14684,7577,7721,7576
14685,7578,7722,7577
14686,7721,7577,7722
14687,7723,7722,7580
14688,7578,7580,7722
14689,7580,7724,7723
14690,7725,7723,7724
14691,7579,7726,7580
14692,7580,7726,7724
14693,7579,7581,7726
14694,7727,7726,7581
14695,7728,7727,7582
14696,7581,7582,7727
14697,7728,7582,7729
14698,7583,7729,7582
14699,7729,7583,7730
14700,7584,7730,7583
14701,7585,7731,7584
14702,7584,7731,7730
14703,7586,7732,7585
14704,7731,7585,7732
14705,7732,7586,7733
14706,7733,7586,7587
14707,7734,7733,7589
14708,7587,7589,7733
14709,7589,7735,7734
14710,7736,7734,7735
14711,7735,7589,7737
14712,7588,7737,7589
14713,7590,7738,7588
14714,7737,7588,7738
14715,7591,7739,7590
14716,7739,7738,7590
14717,7740,7739,7592
14718,7591,7592,7739
14719,7741,7740,7593
14720,7592,7593,7740
14721,7742,7741,7594
14722,7594,7741,7593
14723,7595,7743,7594
14724,7742,7594,7743
14725,7596,7744,7595
14726,7743,7595,7744
14727,7744,7596,7745
14728,7597,7745,7596
14729,7745,7597,7746
14730,7746,7597,7598
14731,7746,7598,7747
14732,7599,7747,7598
14733,7747,7599,7748
14734,7749,7748,7599
14735,7455,7600,7748
14736,7750,7748,7600
14737,7601,7751,7600
14738,7600,7751,7750
14739,7602,7752,7601
14740,7751,7601,7752
14741,7603,7753,7602
14742,7602,7753,7752
14743,7603,7604,7753
14744,7754,7753,7604
14745,7755,7754,7605
14746,7604,7605,7754
14747,7605,7606,7755
14748,7756,7755,7606
14749,7606,7607,7756
14750,7757,7756,7607
14751,7607,7608,7757
14752,7758,7757,7608
14753,7759,7758,7609
14754,7608,7609,7758
14755,7760,7759,7610
14756,7609,7610,7759
14757,7761,7760,7611
14758,7610,7611,7760
14759,7611,7612,7761
14760,7762,7761,7612
14761,7763,7762,7613
14762,7612,7613,7762
14763,7764,7763,7614
14764,7613,7614,7763
14765,7614,7615,7764
14766,7765,7764,7615
14767,7766,7765,7616
14768,7615,7616,7765
14769,7616,7617,7766
14770,7767,7766,7617
14771,7618,7619,7768
14772,7768,7619,7769
14773,7619,7620,7769
14774,7770,7769,7620
14775,7620,7621,7770
14776,7771,7770,7621
14777,7621,7622,7771
14778,7772,7771,7622
14779,7773,7772,7623
14780,7622,7623,7772
14781,7774,7773,7624
14782,7623,7624,7773
14783,7775,7774,7625
14784,7624,7625,7774
14785,7776,7775,7626
14786,7625,7626,7775
14787,7626,7627,7776
14788,7777,7776,7627
14789,7627,7628,7777
14790,7628,7778,7777
14791,7779,7778,7629
14792,7629,7778,7628
14793,7629,7630,7779
14794,7630,7780,7779
14795,7630,7631,7780
14796,7631,7781,7780
14797,7631,7632,7781
14798,7782,7781,7632
14799,7632,7633,7782
14800,7663,7782,7633
14801,7617,7618,7783
14802,7768,7783,7618
14803,7767,7617,7784
14804,7783,7784,7617
14805,7703,7646,7785
14806,7647,7785,7646
14807,7785,7647,7786
14808,7648,7786,7647
14809,7786,7648,7787
14810,7649,7787,7648
14811,7650,7788,7649
14812,7787,7649,7788
14813,7788,7650,7789
14814,7651,7789,7650
14815,7652,7790,7651
14816,7789,7651,7790
14817,7790,7652,7791
14818,7652,7653,7791
14819,7654,7792,7653
14820,7791,7653,7792
14821,7792,7654,7793
14822,7654,7655,7793
14823,7656,7794,7655
14824,7793,7655,7794
14825,7657,7795,7656
14826,7795,7794,7656
14827,7795,7657,7796
14828,7796,7657,7658
14829,7796,7658,7797
14830,7659,7797,7658
14831,7660,7798,7659
14832,7797,7659,7798
14833,7661,7799,7660
14834,7798,7660,7799
14835,7662,7800,7661
14836,7799,7661,7800
14837,7634,7801,7662
14838,7800,7662,7801
14839,7634,7635,7801
14840,7801,7635,7802
14841,7636,7803,7635
14842,7803,7802,7635
14843,7637,7638,7804
14844,7805,7804,7638
14845,7639,7806,7638
14846,7805,7638,7806
14847,7640,7807,7639
14848,7806,7639,7807
14849,7807,7640,7642
14850,7642,7640,7641
14851,7807,7642,7808
14852,7643,7808,7642
14853,7644,7809,7643
14854,7808,7643,7809
14855,7644,7645,7809
14856,7704,7809,7645
14857,7636,7637,7810
14858,7804,7810,7637
14859,7636,7810,7803
14860,7803,7810,7811
14861,7782,7663,7812
14862,7664,7812,7663
14863,7665,7813,7664
14864,7812,7664,7813
14865,7666,7814,7665
14866,7813,7665,7814
14867,7667,7815,7666
14868,7814,7666,7815
14869,7668,7816,7667
14870,7667,7816,7815
14871,7669,7817,7668
14872,7816,7668,7817
14873,7669,7670,7817
14874,7818,7817,7670
14875,7670,7671,7818
14876,7818,7671,7819
14877,7671,7672,7819
14878,7672,7820,7819
14879,7672,7673,7820
14880,7821,7820,7673
14881,7673,7674,7821
14882,7822,7821,7674
14883,7674,7675,7822
14884,7823,7822,7675
14885,7675,7676,7823
14886,7824,7823,7676
14887,7676,7677,7824
14888,7825,7824,7677
14889,7677,7678,7825
14890,7826,7825,7678
14891,7678,7679,7826
14892,7679,7827,7826
14893,7679,7680,7827
14894,7680,7828,7827
14895,7680,7681,7828
14896,7829,7828,7681
14897,7681,7682,7829
14898,7682,7830,7829
14899,7682,7683,7830
14900,7831,7830,7683
14901,7683,7684,7831
14902,7832,7831,7684
14903,7684,7685,7832
14904,7832,7685,7833
14905,7686,7834,7685
14906,7833,7685,7834
14907,7687,7835,7686
14908,7834,7686,7835
14909,7835,7687,7836
14910,7688,7836,7687
14911,7836,7688,7837
14912,7689,7837,7688
14913,7690,7838,7689
14914,7689,7838,7837
14915,7691,7839,7690
14916,7838,7690,7839
14917,7692,7840,7691
14918,7839,7691,7840
14919,7693,7841,7692
14920,7840,7692,7841
14921,7694,7842,7693
14922,7841,7693,7842
14923,7695,7843,7694
14924,7842,7694,7843
14925,7695,7696,7843
14926,7844,7843,7696
14927,7696,7697,7844
14928,7845,7844,7697
14929,7697,7698,7845
14930,7846,7845,7698
14931,7698,7699,7846
14932,7846,7699,7847
14933,7699,7700,7847
14934,7847,7700,7848
14935,7700,7701,7848
14936,7849,7848,7701
14937,7701,7702,7849
14938,7850,7849,7702
14939,7702,7703,7850
14940,7850,7703,7785
14941,7809,7704,7851
14942,7705,7851,7704
14943,7706,7852,7705
14944,7851,7705,7852
14945,7707,7708,7853
14946,7708,7854,7853
14947,7710,7854,7709
14948,7708,7709,7854
14949,7711,7855,7710
14950,7710,7855,7854
14951,7711,7713,7856
14952,7857,7856,7713
14953,7713,7858,7857
14954,7859,7857,7858
14955,7712,7860,7713
14956,7858,7713,7860
14957,7860,7712,7861
14958,7861,7712,7714
14959,7715,7862,7714
14960,7861,7714,7862
14961,7716,7863,7715
14962,7863,7862,7715
14963,7716,7717,7863
14964,7864,7863,7717
14965,7717,7718,7864
14966,7865,7864,7718
14967,7866,7865,7719
14968,7719,7865,7718
14969,7867,7866,7720
14970,7719,7720,7866
14971,7867,7720,7868
14972,7721,7868,7720
14973,7868,7721,7869
14974,7722,7869,7721
14975,7722,7723,7869
14976,7870,7869,7723
14977,7723,7725,7870
14978,7871,7870,7725
14979,7725,7872,7871
14980,7873,7871,7872
14981,7724,7874,7725
14982,7872,7725,7874
14983,7726,7875,7724
14984,7724,7875,7874
14985,7726,7727,7875
14986,7876,7875,7727
14987,7727,7728,7876
14988,7877,7876,7728
14989,7877,7728,7878
14990,7729,7878,7728
14991,7878,7729,7879
14992,7730,7879,7729
14993,7879,7730,7732
14994,7730,7731,7732
14995,7880,7862,7864
14996,7862,7863,7864
14997,7881,7880,7865
14998,7864,7865,7880
14999,7868,7882,7867
15000,7883,7867,7882
15001,7868,7869,7882
15002,7869,7884,7882
15003,7869,7870,7884
15004,7885,7884,7870
15005,7870,7871,7885
15006,7886,7885,7871
15007,7871,7873,7886
15008,7887,7886,7873
15009,7873,7888,7887
15010,7889,7887,7888
15011,7888,7873,7890
15012,7890,7873,7872
15013,7890,7872,7891
15014,7874,7891,7872
15015,7875,7892,7874
15016,7891,7874,7892
15017,7875,7876,7892
15018,7893,7892,7876
15019,7893,7876,7894
15020,7877,7894,7876
15021,7894,7877,7895
15022,7878,7895,7877
15023,7895,7878,7896
15024,7879,7896,7878
15025,7896,7879,7897
15026,7897,7879,7732
15027,7733,7898,7732
15028,7897,7732,7898
15029,7734,7899,7733
15030,7898,7733,7899
15031,7734,7736,7899
15032,7900,7899,7736
15033,7736,7901,7900
15034,7902,7900,7901
15035,7901,7736,7903
15036,7735,7903,7736
15037,7737,7904,7735
15038,7903,7735,7904
15039,7904,7737,7905
15040,7738,7905,7737
15041,7905,7738,7740
15042,7739,7740,7738
15043,7906,7905,7741
15044,7740,7741,7905
15045,7907,7906,7742
15046,7742,7906,7741
15047,7743,7908,7742
15048,7907,7742,7908
15049,7744,7909,7743
15050,7908,7743,7909
15051,7909,7744,7910
15052,7745,7910,7744
15053,7746,7911,7745
15054,7910,7745,7911
15055,7911,7746,7912
15056,7747,7912,7746
15057,7750,7912,7748
15058,7747,7748,7912
15059,7751,7913,7750
15060,7912,7750,7913
15061,7752,7914,7751
15062,7913,7751,7914
15063,7915,7914,7753
15064,7752,7753,7914
15065,7753,7754,7915
15066,7916,7915,7754
15067,7754,7755,7916
15068,7917,7916,7755
15069,7755,7756,7917
15070,7918,7917,7756
15071,7756,7757,7918
15072,7919,7918,7757
15073,7757,7758,7919
15074,7920,7919,7758
15075,7921,7920,7759
15076,7758,7759,7920
15077,7922,7921,7760
15078,7759,7760,7921
15079,7923,7922,7761
15080,7760,7761,7922
15081,7924,7923,7762
15082,7761,7762,7923
15083,7925,7924,7763
15084,7762,7763,7924
15085,7764,7926,7763
15086,7763,7926,7925
15087,7927,7926,7765
15088,7764,7765,7926
15089,7765,7766,7927
15090,7927,7766,7928
15091,7766,7767,7928
15092,7929,7928,7767
15093,7767,7784,7929
15094,7930,7929,7784
15095,7784,7931,7930
15096,7932,7930,7931
15097,7784,7783,7931
15098,7933,7931,7783
15099,7783,7768,7933
15100,7934,7933,7768
15101,7768,7769,7934
15102,7935,7934,7769
15103,7769,7770,7935
15104,7935,7770,7936
15105,7770,7771,7936
15106,7937,7936,7771
15107,7771,7772,7937
15108,7938,7937,7772
15109,7939,7938,7773
15110,7772,7773,7938
15111,7940,7939,7774
15112,7773,7774,7939
15113,7941,7940,7775
15114,7774,7775,7940
15115,7942,7941,7776
15116,7775,7776,7941
15117,7943,7942,7777
15118,7776,7777,7942
15119,7777,7778,7943
15120,7944,7943,7778
15121,7778,7779,7944
15122,7945,7944,7779
15123,7946,7945,7780
15124,7779,7780,7945
15125,7780,7781,7946
15126,7947,7946,7781
15127,7781,7782,7947
15128,7812,7947,7782
15129,7850,7785,7948
15130,7786,7948,7785
15131,7787,7949,7786
15132,7949,7948,7786
15133,7788,7950,7787
15134,7787,7950,7949
15135,7789,7951,7788
15136,7950,7788,7951
15137,7951,7789,7952
15138,7952,7789,7790
15139,7791,7953,7790
15140,7952,7790,7953
15141,7953,7791,7954
15142,7792,7954,7791
15143,7793,7955,7792
15144,7954,7792,7955
15145,7794,7956,7793
15146,7793,7956,7955
15147,7795,7957,7794
15148,7956,7794,7957
15149,7796,7958,7795
15150,7957,7795,7958
15151,7797,7959,7796
15152,7958,7796,7959
15153,7798,7960,7797
15154,7959,7797,7960
15155,7799,7961,7798
15156,7960,7798,7961
15157,7800,7962,7799
15158,7961,7799,7962
15159,7801,7963,7800
15160,7963,7962,7800
15161,7802,7964,7801
15162,7963,7801,7964
15163,7802,7803,7964
15164,7965,7964,7803
15165,7803,7811,7965
15166,7966,7965,7811
15167,7967,7968,7811
15168,7966,7811,7968
15169,7811,7810,7967
15170,7969,7967,7810
15171,7810,7804,7969
15172,7970,7969,7804
15173,7805,7971,7804
15174,7970,7804,7971
15175,7806,7972,7805
15176,7971,7805,7972
15177,7807,7973,7806
15178,7972,7806,7973
15179,7807,7808,7973
15180,7852,7973,7808
15181,7809,7851,7808
15182,7852,7808,7851
15183,7706,7707,7974
15184,7853,7974,7707
15185,7813,7975,7812
15186,7947,7812,7975
15187,7814,7976,7813
15188,7975,7813,7976
15189,7815,7977,7814
15190,7976,7814,7977
15191,7816,7978,7815
15192,7977,7815,7978
15193,7817,7979,7816
15194,7978,7816,7979
15195,7817,7818,7979
15196,7980,7979,7818
15197,7818,7819,7980
15198,7981,7980,7819
15199,7819,7820,7981
15200,7982,7981,7820
15201,7820,7821,7982
15202,7983,7982,7821
15203,7821,7822,7983
15204,7984,7983,7822
15205,7822,7823,7984
15206,7985,7984,7823
15207,7823,7824,7985
15208,7986,7985,7824
15209,7824,7825,7986
15210,7987,7986,7825
15211,7825,7826,7987
15212,7988,7987,7826
15213,7989,7988,7827
15214,7826,7827,7988
15215,7990,7989,7828
15216,7989,7827,7828
15217,7991,7990,7829
15218,7828,7829,7990
15219,7829,7830,7991
15220,7992,7991,7830
15221,7993,7992,7831
15222,7830,7831,7992
15223,7831,7832,7993
15224,7994,7993,7832
15225,7995,7994,7833
15226,7832,7833,7994
15227,7995,7833,7996
15228,7834,7996,7833
15229,7835,7997,7834
15230,7996,7834,7997
15231,7997,7835,7998
15232,7835,7836,7998
15233,7998,7836,7999
15234,7999,7836,7837
15235,7999,7837,8000
15236,8000,7837,7838
15237,7839,8001,7838
15238,8001,8000,7838
15239,7840,8002,7839
15240,8001,7839,8002
15241,7841,8003,7840
15242,8002,7840,8003
15243,7842,8004,7841
15244,7841,8004,8003
15245,7843,8005,7842
15246,8004,7842,8005
15247,7843,7844,8005
15248,8006,8005,7844
15249,7844,7845,8006
15250,8007,8006,7845
15251,7845,7846,8007
15252,8007,7846,8008
15253,7846,7847,8008
15254,8009,8008,7847
15255,7847,7848,8009
15256,7848,8010,8009
15257,7848,7849,8010
15258,8011,8010,7849
15259,7849,7850,8011
15260,7948,8011,7850
15261,7706,7974,7852
15262,7973,7852,7974
15263,7974,8012,7973
15264,7973,8012,7972
15265,7974,7853,8012
15266,8013,8012,7853
15267,7855,8013,7854
15268,7853,7854,8013
15269,7913,8014,7912
15270,7911,7912,8014
15271,7913,7914,8014
15272,8015,8014,7914
15273,8016,8015,7915
15274,7914,7915,8015
15275,8017,8016,7916
15276,7915,7916,8016
15277,8018,8017,7917
15278,7916,7917,8017
15279,8019,8018,7918
15280,8018,7917,7918
15281,7918,7919,8019
15282,8020,8019,7919
15283,7919,7920,8020
15284,8021,8020,7920
15285,8022,8021,7921
15286,8021,7920,7921
15287,8023,8022,7922
15288,7921,7922,8022
15289,8024,8023,7923
15290,7922,7923,8023
15291,8025,8024,7924
15292,7924,8024,7923
15293,8026,8025,7925
15294,7924,7925,8025
15295,7926,8027,7925
15296,8026,7925,8027
15297,7927,8028,7926
15298,8027,7926,8028
15299,8028,7927,8029
15300,7928,8029,7927
15301,7928,7929,8029
15302,8030,8029,7929
15303,7929,7930,8030
15304,8031,8030,7930
15305,7930,7932,8031
15306,8032,8031,7932
15307,7932,8033,8032
15308,8032,8033,8034
15309,7931,8035,7932
15310,8033,7932,8035
15311,7931,7933,8035
15312,8036,8035,7933
15313,7933,7934,8036
15314,8037,8036,7934
15315,8038,8037,7935
15316,7934,7935,8037
15317,8039,8038,7936
15318,7935,7936,8038
15319,8040,8039,7937
15320,7936,7937,8039
15321,7939,8040,7938
15322,7937,7938,8040
15323,8041,7861,7880
15324,7862,7880,7861
15325,8042,8041,7881
15326,7880,7881,8041
15327,7882,8043,7883
15328,8044,7883,8043
15329,7882,7884,8043
15330,8045,8043,7884
15331,7884,7885,8045
15332,8046,8045,7885
15333,7885,7886,8046
15334,8047,8046,7886
15335,7886,7887,8047
15336,8048,8047,7887
15337,8048,7887,8049
15338,7889,8049,7887
15339,8050,8049,8051
15340,7889,8051,8049
15341,8051,7889,8052
15342,7888,8052,7889
15343,8052,7888,8053
15344,7890,8053,7888
15345,8053,7890,8054
15346,7891,8054,7890
15347,8054,7891,7893
15348,7892,7893,7891
15349,8054,7893,8055
15350,8055,7893,7894
15351,8055,7894,8056
15352,7895,8056,7894
15353,8056,7895,8057
15354,7896,8057,7895
15355,7897,8058,7896
15356,8057,7896,8058
15357,7898,8059,7897
15358,8058,7897,8059
15359,7899,8060,7898
15360,7898,8060,8059
15361,7899,7900,8060
15362,8061,8060,7900
15363,7902,8062,7900
15364,8061,7900,8062
15365,7902,8063,8062
15366,8064,8062,8063
15367,8065,8063,7901
15368,7902,7901,8063
15369,8065,7901,8066
15370,7903,8066,7901
15371,8066,7903,8067
15372,7904,8067,7903
15373,8067,7904,7906
15374,7905,7906,7904
15375,7883,8044,8068
15376,8069,8068,8044
15377,8068,8069,8070
15378,8071,8070,8069
15379,7940,8072,7939
15380,8040,7939,8072
15381,8072,7940,8073
15382,7941,8073,7940
15383,8074,8073,7942
15384,7941,7942,8073
15385,8075,8074,7943
15386,7943,8074,7942
15387,8076,8075,7944
15388,7943,7944,8075
15389,8077,8076,7945
15390,7944,7945,8076
15391,7945,7946,8077
15392,8077,7946,8078
15393,7946,7947,8078
15394,7975,8078,7947
15395,8011,7948,8079
15396,7948,7949,8079
15397,7950,8080,7949
15398,8079,7949,8080
15399,7951,8081,7950
15400,8080,7950,8081
15401,7952,8082,7951
15402,8081,7951,8082
15403,7953,8083,7952
15404,8082,7952,8083
15405,7954,8084,7953
15406,8083,7953,8084
15407,7955,8085,7954
15408,8084,7954,8085
15409,7956,8086,7955
15410,8085,7955,8086
15411,7957,8087,7956
15412,8086,7956,8087
15413,7958,8088,7957
15414,8087,7957,8088
15415,7959,8089,7958
15416,8088,7958,8089
15417,7960,8090,7959
15418,8089,7959,8090
15419,7961,8091,7960
15420,8090,7960,8091
15421,7962,8092,7961
15422,8092,8091,7961
15423,8092,7962,8093
15424,7963,8093,7962
15425,8093,7963,8094
15426,7964,8094,7963
15427,7964,7965,8094
15428,8095,8094,7965
15429,7966,8096,7965
15430,8095,7965,8096
15431,7968,8097,7966
15432,8096,7966,8097
15433,8097,7968,7859
15434,7857,7859,7968
15435,8067,7906,8098
15436,7907,8098,7906
15437,8098,7907,8099
15438,7908,8099,7907
15439,8100,8099,7909
15440,8099,7908,7909
15441,8100,7909,8101
15442,8101,7909,7910
15443,8014,8101,7911
15444,7910,7911,8101
15445,7976,8102,7975
15446,8078,7975,8102
15447,7977,8103,7976
15448,8103,8102,7976
15449,7978,8104,7977
15450,8103,7977,8104
15451,7978,7979,8104
15452,7979,8105,8104
15453,7979,7980,8105
15454,8106,8105,7980
15455,7980,7981,8106
15456,8107,8106,7981
15457,7981,7982,8107
15458,8108,8107,7982
15459,8109,8108,7983
15460,7982,7983,8108
15461,7983,7984,8109
15462,8109,7984,8110
15463,7984,7985,8110
15464,8111,8110,7985
15465,8112,8111,7986
15466,7985,7986,8111
15467,7986,7987,8112
15468,8113,8112,7987
15469,8114,8113,7988
15470,7987,7988,8113
15471,8115,8114,7989
15472,7988,7989,8114
15473,8116,8115,7990
15474,7989,7990,8115
15475,8117,8116,7991
15476,7991,8116,7990
15477,8118,8117,7992
15478,7991,7992,8117
15479,7992,7993,8118
15480,8119,8118,7993
15481,7993,7994,8119
15482,8120,8119,7994
15483,7994,7995,8120
15484,8121,8120,7995
15485,7995,7996,8121
15486,8122,8121,7996
15487,8122,7996,8123
15488,7997,8123,7996
15489,8123,7997,8124
15490,7998,8124,7997
15491,8124,7998,8125
15492,7999,8125,7998
15493,8000,8126,7999
15494,8125,7999,8126
15495,8126,8000,8127
15496,8001,8127,8000
15497,8002,8128,8001
15498,8127,8001,8128
15499,8003,8129,8002
15500,8002,8129,8128
15501,8004,8130,8003
15502,8130,8129,8003
15503,8005,8131,8004
15504,8130,8004,8131
15505,8005,8006,8131
15506,8132,8131,8006
15507,8006,8007,8132
15508,8133,8132,8007
15509,8007,8008,8133
15510,8134,8133,8008
15511,8008,8009,8134
15512,8135,8134,8009
15513,8009,8010,8135
15514,8010,8136,8135
15515,8010,8011,8136
15516,8136,8011,8079
15517,8137,8097,7858
15518,7859,7858,8097
15519,8137,7858,8138
15520,7860,8138,7858
15521,8138,7860,8041
15522,7861,8041,7860
15523,7856,7857,7967
15524,7968,7967,7857
15525,8136,8079,8139
15526,8080,8139,8079
15527,8081,8140,8080
15528,8140,8139,8080
15529,8082,8141,8081
15530,8140,8081,8141
15531,8083,8142,8082
15532,8141,8082,8142
15533,8084,8143,8083
15534,8142,8083,8143
15535,8085,8144,8084
15536,8143,8084,8144
15537,8086,8145,8085
15538,8144,8085,8145
15539,8087,8146,8086
15540,8145,8086,8146
15541,8088,8147,8087
15542,8147,8146,8087
15543,8089,8148,8088
15544,8147,8088,8148
15545,8090,8149,8089
15546,8148,8089,8149
15547,8091,8150,8090
15548,8149,8090,8150
15549,8150,8091,8151
15550,8092,8151,8091
15551,8152,8151,8093
15552,8092,8093,8151
15553,8093,8094,8152
15554,8153,8152,8094
15555,8094,8095,8153
15556,8096,8153,8095
15557,7967,7969,7856
15558,7856,7969,8154
15559,8014,8015,8101
15560,8100,8101,8015
15561,8155,8100,8016
15562,8016,8100,8015
15563,8156,8155,8017
15564,8016,8017,8155
15565,8157,8158,8023
15566,8022,8023,8158
15567,8159,8157,8024
15568,8023,8024,8157
15569,8160,8159,8025
15570,8025,8159,8024
15571,8026,8161,8025
15572,8160,8025,8161
15573,8027,8162,8026
15574,8161,8026,8162
15575,8028,8163,8027
15576,8027,8163,8162
15577,8163,8028,8164
15578,8029,8164,8028
15579,8164,8029,8165
15580,8030,8165,8029
15581,8030,8031,8165
15582,8166,8165,8031
15583,8031,8032,8166
15584,8167,8166,8032
15585,8034,8168,8032
15586,8167,8032,8168
15587,8169,8170,8034
15588,8034,8170,8168
15589,8171,8169,8033
15590,8033,8169,8034
15591,8033,8035,8171
15592,8172,8171,8035
15593,8035,8036,8172
15594,8173,8172,8036
15595,8036,8037,8173
15596,8174,8173,8037
15597,8037,8038,8174
15598,8175,8174,8038
15599,8038,8039,8175
15600,8176,8175,8039
15601,8072,8176,8040
15602,8039,8040,8176
15603,7972,8012,7971
15604,8177,7971,8012
15605,8178,8177,8013
15606,8012,8013,8177
15607,7969,7970,8154
15608,8178,8154,7970
15609,7970,7971,8178
15610,8177,8178,7971
15611,8137,8153,8097
15612,8096,8097,8153
15613,8066,8067,8179
15614,8098,8179,8067
15615,8179,8098,8180
15616,8099,8180,8098
15617,8100,8155,8099
15618,8180,8099,8155
15619,8042,8181,8182
15620,8183,8182,8181
15621,8181,8184,8183
15622,8184,8185,8183
15623,8186,8185,8070
15624,8070,8185,8184
15625,8187,8186,8071
15626,8070,8071,8186
15627,8187,8071,8188
15628,8069,8188,8071
15629,8044,8189,8069
15630,8188,8069,8189
15631,8043,8190,8044
15632,8189,8044,8190
15633,8045,8191,8043
15634,8190,8043,8191
15635,8045,8046,8191
15636,8192,8191,8046
15637,8193,8192,8047
15638,8046,8047,8192
15639,8194,8193,8048
15640,8047,8048,8193
15641,8048,8049,8194
15642,8050,8194,8049
15643,8195,8196,8050
15644,8194,8050,8196
15645,8195,8050,8197
15646,8051,8197,8050
15647,8197,8051,8198
15648,8052,8198,8051
15649,8198,8052,8199
15650,8053,8199,8052
15651,8199,8053,8200
15652,8054,8200,8053
15653,8200,8054,8201
15654,8055,8201,8054
15655,8201,8055,8202
15656,8056,8202,8055
15657,8202,8056,8203
15658,8057,8203,8056
15659,8058,8204,8057
15660,8204,8203,8057
15661,8059,8205,8058
15662,8204,8058,8205
15663,8059,8060,8205
15664,8205,8060,8206
15665,8207,8206,8061
15666,8061,8206,8060
15667,8207,8061,8064
15668,8062,8064,8061
15669,8208,8207,8209
15670,8064,8209,8207
15671,8063,8210,8064
15672,8064,8210,8209
15673,8065,8211,8063
15674,8210,8063,8211
15675,8212,8179,8213
15676,8180,8213,8179
15677,8213,8180,8156
15678,8155,8156,8180
15679,8214,8215,8019
15680,8018,8019,8215
15681,8077,8078,8216
15682,8102,8216,8078
15683,8103,8217,8102
15684,8216,8102,8217
15685,8104,8218,8103
15686,8218,8217,8103
15687,8219,8218,8105
15688,8104,8105,8218
15689,8105,8106,8219
15690,8220,8219,8106
15691,8221,8220,8107
15692,8106,8107,8220
15693,8222,8221,8108
15694,8108,8221,8107
15695,8108,8109,8222
15696,8223,8222,8109
15697,8109,8110,8223
15698,8223,8110,8224
15699,8110,8111,8224
15700,8111,8225,8224
15701,8111,8112,8225
15702,8226,8225,8112
15703,8227,8226,8113
15704,8112,8113,8226
15705,8228,8227,8114
15706,8227,8113,8114
15707,8229,8228,8115
15708,8114,8115,8228
15709,8115,8116,8229
15710,8230,8229,8116
15711,8231,8230,8117
15712,8116,8117,8230
15713,8117,8118,8231
15714,8232,8231,8118
15715,8118,8119,8232
15716,8233,8232,8119
15717,8119,8120,8233
15718,8233,8120,8234
15719,8120,8121,8234
15720,8235,8234,8121
15721,8121,8122,8235
15722,8236,8235,8122
15723,8123,8237,8122
15724,8236,8122,8237
15725,8237,8123,8238
15726,8124,8238,8123
15727,8125,8239,8124
15728,8124,8239,8238
15729,8239,8125,8240
15730,8126,8240,8125
15731,8127,8241,8126
15732,8240,8126,8241
15733,8128,8242,8127
15734,8241,8127,8242
15735,8129,8243,8128
15736,8242,8128,8243
15737,8130,8244,8129
15738,8243,8129,8244
15739,8131,8245,8130
15740,8244,8130,8245
15741,8131,8132,8245
15742,8245,8132,8246
15743,8132,8133,8246
15744,8247,8246,8133
15745,8133,8134,8247
15746,8248,8247,8134
15747,8134,8135,8248
15748,8249,8248,8135
15749,8139,8249,8136
15750,8135,8136,8249
15751,8176,8072,8250
15752,8072,8073,8250
15753,8251,8250,8074
15754,8073,8074,8250
15755,8252,8251,8075
15756,8074,8075,8251
15757,8253,8252,8076
15758,8252,8075,8076
15759,8216,8253,8077
15760,8076,8077,8253
15761,8137,8254,8153
15762,8254,8152,8153
15763,8138,8255,8137
15764,8254,8137,8255
15765,8256,8257,8214
15766,8257,8215,8214
15767,8159,8258,8157
15768,8256,8157,8258
15769,8160,8259,8159
15770,8258,8159,8259
15771,8161,8260,8160
15772,8259,8160,8260
15773,8162,8261,8161
15774,8260,8161,8261
15775,8163,8262,8162
15776,8261,8162,8262
15777,8262,8163,8263
15778,8164,8263,8163
15779,8263,8164,8264
15780,8165,8264,8164
15781,8264,8165,8265
15782,8166,8265,8165
15783,8167,8266,8166
15784,8265,8166,8266
15785,8168,8267,8167
15786,8266,8167,8267
15787,8170,8268,8168
15788,8267,8168,8268
15789,8268,8170,8269
15790,8270,8269,8170
15791,8271,8270,8169
15792,8170,8169,8270
15793,8272,8271,8171
15794,8171,8271,8169
15795,8273,8272,8172
15796,8171,8172,8272
15797,8172,8173,8273
15798,8173,8274,8273
15799,8173,8174,8274
15800,8274,8174,8275
15801,8174,8175,8275
15802,8275,8175,8276
15803,8277,8276,8176
15804,8175,8176,8276
15805,8176,8250,8277
15806,8278,8277,8250
15807,8250,8251,8278
15808,8279,8278,8251
15809,8280,8279,8252
15810,8251,8252,8279
15811,8252,8253,8280
15812,8281,8280,8253
15813,8217,8281,8216
15814,8216,8281,8253
15815,8254,8282,8152
15816,8151,8152,8282
15817,8255,8283,8254
15818,8282,8254,8283
15819,8183,8185,8284
15820,8185,8285,8284
15821,8286,8285,8186
15822,8285,8185,8186
15823,8287,8286,8187
15824,8286,8186,8187
15825,8287,8187,8288
15826,8188,8288,8187
15827,8189,8289,8188
15828,8288,8188,8289
15829,8190,8290,8189
15830,8289,8189,8290
15831,8291,8290,8191
15832,8290,8190,8191
15833,8292,8291,8192
15834,8191,8192,8291
15835,8193,8293,8192
15836,8292,8192,8293
15837,8294,8293,8194
15838,8193,8194,8293
15839,8295,8294,8196
15840,8194,8196,8294
15841,8296,8288,8290
15842,8290,8288,8289
15843,8297,8296,8291
15844,8290,8291,8296
15845,8298,8297,8292
15846,8292,8297,8291
15847,8298,8292,8299
15848,8293,8299,8292
15849,8300,8299,8294
15850,8293,8294,8299
15851,8294,8295,8300
15852,8301,8300,8295
15853,8295,8302,8301
15854,8303,8301,8302
15855,8302,8295,8304
15856,8295,8196,8304
15857,8305,8304,8195
15858,8196,8195,8304
15859,8197,8306,8195
15860,8305,8195,8306
15861,8198,8307,8197
15862,8306,8197,8307
15863,8199,8308,8198
15864,8307,8198,8308
15865,8201,8309,8200
15866,8310,8200,8309
15867,8202,8311,8201
15868,8309,8201,8311
15869,8311,8202,8312
15870,8312,8202,8203
15871,8312,8203,8313
15872,8204,8313,8203
15873,8313,8204,8206
15874,8205,8206,8204
15875,8314,8313,8207
15876,8206,8207,8313
15877,8207,8208,8314
15878,8315,8314,8208
15879,8218,8316,8217
15880,8217,8316,8281
15881,8219,8317,8218
15882,8316,8218,8317
15883,8318,8317,8220
15884,8317,8219,8220
15885,8319,8318,8221
15886,8220,8221,8318
15887,8320,8319,8222
15888,8221,8222,8319
15889,8321,8320,8223
15890,8222,8223,8320
15891,8223,8224,8321
15892,8322,8321,8224
15893,8224,8225,8322
15894,8323,8322,8225
15895,8225,8226,8323
15896,8324,8323,8226
15897,8226,8227,8324
15898,8325,8324,8227
15899,8326,8325,8228
15900,8227,8228,8325
15901,8327,8326,8229
15902,8228,8229,8326
15903,8328,8327,8230
15904,8229,8230,8327
15905,8230,8231,8328
15906,8329,8328,8231
15907,8330,8329,8232
15908,8231,8232,8329
15909,8330,8232,8331
15910,8233,8331,8232
15911,8233,8234,8331
15912,8332,8331,8234
15913,8234,8235,8332
15914,8333,8332,8235
15915,8334,8333,8236
15916,8235,8236,8333
15917,8334,8236,8335
15918,8335,8236,8237
15919,8238,8336,8237
15920,8335,8237,8336
15921,8336,8238,8337
15922,8337,8238,8239
15923,8337,8239,8338
15924,8240,8338,8239
15925,8241,8339,8240
15926,8338,8240,8339
15927,8242,8340,8241
15928,8339,8241,8340
15929,8243,8341,8242
15930,8242,8341,8340
15931,8244,8342,8243
15932,8341,8243,8342
15933,8245,8343,8244
15934,8342,8244,8343
15935,8245,8246,8343
15936,8246,8344,8343
15937,8246,8247,8344
15938,8345,8344,8247
15939,8247,8248,8345
15940,8346,8345,8248
15941,8248,8249,8346
15942,8347,8346,8249
15943,8249,8139,8347
15944,8140,8347,8139
15945,8347,8140,8348
15946,8141,8348,8140
15947,8142,8349,8141
15948,8349,8348,8141
15949,8143,8350,8142
15950,8349,8142,8350
15951,8144,8351,8143
15952,8350,8143,8351
15953,8145,8352,8144
15954,8351,8144,8352
15955,8146,8353,8145
15956,8352,8145,8353
15957,8147,8354,8146
15958,8353,8146,8354
15959,8148,8355,8147
15960,8354,8147,8355
15961,8356,8355,8149
15962,8148,8149,8355
15963,8357,8356,8150
15964,8149,8150,8356
15965,8282,8357,8151
15966,8150,8151,8357
15967,8358,8312,8314
15968,8313,8314,8312
15969,8358,8314,8359
15970,8359,8314,8315
15971,8360,8359,8361
15972,8315,8361,8359
15973,8208,8262,8315
15974,8361,8315,8262
15975,8262,8208,8261
15976,8209,8261,8208
15977,8261,8209,8260
15978,8210,8260,8209
15979,8362,8199,8310
15980,8200,8310,8199
15981,8199,8362,8308
15982,8362,8363,8308
15983,8211,8259,8210
15984,8260,8210,8259
15985,8262,8263,8361
15986,8360,8361,8263
15987,8264,8364,8263
15988,8360,8263,8364
15989,8265,8365,8264
15990,8364,8264,8365
15991,8266,8366,8265
15992,8365,8265,8366
15993,8267,8367,8266
15994,8266,8367,8366
15995,8367,8267,8368
15996,8268,8368,8267
15997,8368,8268,8369
15998,8269,8369,8268
15999,8369,8269,8370
16000,8371,8370,8269
16001,8269,8270,8371
16002,8372,8371,8270
16003,8373,8372,8271
16004,8270,8271,8372
16005,8374,8373,8272
16006,8271,8272,8373
16007,8375,8374,8273
16008,8272,8273,8374
16009,8273,8274,8375
16010,8274,8376,8375
16011,8274,8275,8376
16012,8377,8376,8275
16013,8275,8276,8377
16014,8377,8276,8378
16015,8379,8378,8277
16016,8276,8277,8378
16017,8380,8379,8278
16018,8277,8278,8379
16019,8381,8380,8279
16020,8279,8380,8278
16021,8279,8280,8381
16022,8382,8381,8280
16023,8316,8382,8281
16024,8280,8281,8382
16025,8259,8211,8258
16026,8211,8383,8258
16027,8258,8383,8256
16028,8257,8256,8383
16029,8317,8384,8316
16030,8382,8316,8384
16031,8385,8384,8318
16032,8317,8318,8384
16033,8386,8385,8319
16034,8318,8319,8385
16035,8387,8386,8320
16036,8319,8320,8386
16037,8388,8387,8321
16038,8320,8321,8387
16039,8321,8322,8388
16040,8322,8389,8388
16041,8322,8323,8389
16042,8390,8389,8323
16043,8323,8324,8390
16044,8391,8390,8324
16045,8324,8325,8391
16046,8392,8391,8325
16047,8393,8392,8326
16048,8325,8326,8392
16049,8394,8393,8327
16050,8326,8327,8393
16051,8395,8394,8328
16052,8327,8328,8394
16053,8328,8329,8395
16054,8396,8395,8329
16055,8329,8330,8396
16056,8397,8396,8330
16057,8330,8331,8397
16058,8398,8397,8331
16059,8331,8332,8398
16060,8399,8398,8332
16061,8400,8399,8333
16062,8332,8333,8399
16063,8401,8400,8334
16064,8333,8334,8400
16065,8335,8402,8334
16066,8334,8402,8401
16067,8336,8403,8335
16068,8402,8335,8403
16069,8337,8404,8336
16070,8403,8336,8404
16071,8404,8337,8405
16072,8338,8405,8337
16073,8339,8406,8338
16074,8338,8406,8405
16075,8340,8407,8339
16076,8339,8407,8406
16077,8341,8408,8340
16078,8340,8408,8407
16079,8342,8409,8341
16080,8341,8409,8408
16081,8343,8410,8342
16082,8409,8342,8410
16083,8343,8344,8410
16084,8411,8410,8344
16085,8344,8345,8411
16086,8412,8411,8345
16087,8345,8346,8412
16088,8413,8412,8346
16089,8346,8347,8413
16090,8413,8347,8348
16091,8413,8348,8414
16092,8349,8414,8348
16093,8350,8415,8349
16094,8414,8349,8415
16095,8351,8416,8350
16096,8415,8350,8416
16097,8352,8417,8351
16098,8417,8416,8351
16099,8353,8418,8352
16100,8352,8418,8417
16101,8354,8419,8353
16102,8418,8353,8419
16103,8420,8419,8355
16104,8354,8355,8419
16105,8421,8420,8356
16106,8355,8356,8420
16107,8422,8421,8357
16108,8356,8357,8421
16109,8283,8422,8282
16110,8357,8282,8422
16111,8359,8360,8423
16112,8364,8423,8360
16113,8423,8364,8424
16114,8365,8424,8364
16115,8366,8425,8365
16116,8424,8365,8425
16117,8367,8426,8366
16118,8366,8426,8425
16119,8368,8427,8367
16120,8426,8367,8427
16121,8427,8368,8428
16122,8369,8428,8368
16123,8428,8369,8429
16124,8370,8429,8369
16125,8430,8431,8370
16126,8429,8370,8431
16127,8430,8370,8372
16128,8372,8370,8371
16129,8432,8430,8373
16130,8372,8373,8430
16131,8433,8432,8374
16132,8373,8374,8432
16133,8434,8433,8375
16134,8374,8375,8433
16135,8435,8434,8376
16136,8434,8375,8376
16137,8436,8435,8377
16138,8376,8377,8435
16139,8379,8436,8378
16140,8378,8436,8377
16141,8437,8436,8380
16142,8379,8380,8436
16143,8438,8437,8381
16144,8380,8381,8437
16145,8384,8438,8382
16146,8381,8382,8438
16147,8412,8413,8439
16148,8414,8439,8413
16149,8439,8414,8440
16150,8415,8440,8414
16151,8416,8441,8415
16152,8440,8415,8441
16153,8417,8442,8416
16154,8442,8441,8416
16155,8418,8443,8417
16156,8442,8417,8443
16157,8419,8444,8418
16158,8443,8418,8444
16159,8445,8444,8420
16160,8444,8419,8420
16161,8446,8445,8421
16162,8420,8421,8445
16163,8447,8446,8422
16164,8421,8422,8446
16165,8284,8448,8447
16166,8446,8447,8448
16167,8449,8448,8285
16168,8448,8284,8285
16169,8450,8449,8286
16170,8449,8285,8286
16171,8451,8450,8287
16172,8450,8286,8287
16173,8288,8452,8287
16174,8451,8287,8452
16175,8288,8296,8452
16176,8296,8453,8452
16177,8454,8453,8297
16178,8296,8297,8453
16179,8454,8297,8455
16180,8298,8455,8297
16181,8455,8298,8456
16182,8299,8456,8298
16183,8299,8300,8456
16184,8456,8300,8457
16185,8300,8301,8457
16186,8458,8457,8301
16187,8301,8303,8458
16188,8459,8458,8303
16189,8303,8460,8459
16190,8459,8460,8461
16191,8302,8462,8303
16192,8460,8303,8462
16193,8462,8302,8463
16194,8304,8463,8302
16195,8304,8305,8463
16196,8464,8463,8305
16197,8465,8464,8306
16198,8305,8306,8464
16199,8307,8466,8306
16200,8465,8306,8466
16201,8308,8467,8307
16202,8307,8467,8466
16203,8308,8363,8467
16204,8467,8363,8468
16205,8363,8469,8468
16206,8470,8468,8469
16207,8362,8471,8363
16208,8469,8363,8471
16209,8471,8362,8472
16210,8472,8362,8310
16211,8309,8473,8310
16212,8310,8473,8472
16213,8311,8474,8309
16214,8474,8473,8309
16215,8474,8311,8358
16216,8312,8358,8311
16217,8475,8438,8385
16218,8384,8385,8438
16219,8476,8475,8386
16220,8385,8386,8475
16221,8477,8476,8387
16222,8386,8387,8476
16223,8478,8477,8388
16224,8388,8477,8387
16225,8478,8388,8479
16226,8479,8388,8389
16227,8389,8390,8479
16228,8390,8480,8479
16229,8390,8391,8480
16230,8481,8480,8391
16231,8391,8392,8481
16232,8481,8392,8482
16233,8392,8393,8482
16234,8483,8482,8393
16235,8484,8483,8394
16236,8483,8393,8394
16237,8485,8484,8395
16238,8394,8395,8484
16239,8486,8485,8396
16240,8485,8395,8396
16241,8487,8486,8397
16242,8396,8397,8486
16243,8397,8398,8487
16244,8488,8487,8398
16245,8398,8399,8488
16246,8489,8488,8399
16247,8399,8400,8489
16248,8490,8489,8400
16249,8400,8401,8490
16250,8491,8490,8401
16251,8491,8401,8492
16252,8402,8492,8401
16253,8492,8402,8493
16254,8403,8493,8402
16255,8493,8403,8494
16256,8404,8494,8403
16257,8494,8404,8495
16258,8405,8495,8404
16259,8406,8496,8405
16260,8405,8496,8495
16261,8407,8497,8406
16262,8496,8406,8497
16263,8408,8498,8407
16264,8497,8407,8498
16265,8409,8499,8408
16266,8498,8408,8499
16267,8410,8500,8409
16268,8409,8500,8499
16269,8410,8411,8500
16270,8411,8501,8500
16271,8411,8412,8501
16272,8439,8501,8412
16273,8471,8472,8502
16274,8473,8502,8472
16275,8502,8473,8503
16276,8474,8503,8473
16277,8358,8504,8474
16278,8503,8474,8504
16279,8358,8359,8504
16280,8423,8504,8359
16281,8438,8475,8437
16282,8505,8437,8475
16283,8506,8505,8476
16284,8475,8476,8505
16285,8507,8506,8477
16286,8476,8477,8506
16287,8508,8507,8478
16288,8477,8478,8507
16289,8508,8478,8509
16290,8479,8509,8478
16291,8509,8479,8510
16292,8510,8479,8480
16293,8480,8481,8510
16294,8511,8510,8481
16295,8481,8482,8511
16296,8512,8511,8482
16297,8482,8483,8512
16298,8513,8512,8483
16299,8483,8484,8513
16300,8514,8513,8484
16301,8515,8514,8485
16302,8484,8485,8514
16303,8516,8515,8486
16304,8486,8515,8485
16305,8517,8516,8487
16306,8486,8487,8516
16307,8488,8518,8487
16308,8517,8487,8518
16309,8488,8489,8518
16310,8489,8519,8518
16311,8489,8490,8519
16312,8520,8519,8490
16313,8521,8520,8491
16314,8490,8491,8520
16315,8521,8491,8522
16316,8492,8522,8491
16317,8522,8492,8523
16318,8523,8492,8493
16319,8523,8493,8524
16320,8494,8524,8493
16321,8495,8525,8494
16322,8494,8525,8524
16323,8496,8526,8495
16324,8525,8495,8526
16325,8526,8496,8527
16326,8497,8527,8496
16327,8498,8528,8497
16328,8527,8497,8528
16329,8499,8529,8498
16330,8528,8498,8529
16331,8500,8530,8499
16332,8529,8499,8530
16333,8501,8531,8500
16334,8530,8500,8531
16335,8501,8439,8531
16336,8440,8531,8439
16337,8441,8532,8440
16338,8531,8440,8532
16339,8442,8533,8441
16340,8532,8441,8533
16341,8443,8534,8442
16342,8533,8442,8534
16343,8444,8535,8443
16344,8534,8443,8535
16345,8445,8536,8444
16346,8535,8444,8536
16347,8446,8448,8445
16348,8536,8445,8448
16349,8423,8424,8504
16350,8425,8504,8424
16351,8504,8425,8503
16352,8426,8503,8425
16353,8537,8536,8449
16354,8448,8449,8536
16355,8538,8537,8450
16356,8449,8450,8537
16357,8539,8538,8451
16358,8450,8451,8538
16359,8451,8452,8539
16360,8540,8539,8452
16361,8452,8453,8540
16362,8541,8540,8453
16363,8542,8541,8454
16364,8453,8454,8541
16365,8542,8454,8543
16366,8455,8543,8454
16367,8543,8455,8544
16368,8456,8544,8455
16369,8456,8457,8544
16370,8521,8544,8457
16371,8520,8521,8458
16372,8457,8458,8521
16373,8503,8426,8502
16374,8427,8502,8426
16375,8502,8427,8545
16376,8428,8545,8427
16377,8545,8428,8546
16378,8429,8546,8428
16379,8546,8429,8547
16380,8431,8547,8429
16381,8547,8431,8548
16382,8549,8548,8431
16383,8550,8549,8430
16384,8431,8430,8549
16385,8430,8432,8550
16386,8508,8550,8432
16387,8507,8508,8433
16388,8432,8433,8508
16389,8506,8507,8434
16390,8433,8434,8507
16391,8505,8506,8435
16392,8435,8506,8434
16393,8437,8505,8436
16394,8505,8435,8436
16395,8519,8520,8459
16396,8459,8520,8458
16397,8518,8519,8461
16398,8459,8461,8519
16399,8522,8543,8521
16400,8544,8521,8543
16401,8523,8542,8522
16402,8543,8522,8542
16403,8518,8461,8517
16404,8460,8517,8461
16405,8542,8523,8551
16406,8523,8524,8551
16407,8525,8552,8524
16408,8552,8551,8524
16409,8526,8553,8525
16410,8552,8525,8553
16411,8553,8526,8554
16412,8527,8554,8526
16413,8554,8527,8555
16414,8555,8527,8528
16415,8529,8556,8528
16416,8555,8528,8556
16417,8530,8557,8529
16418,8556,8529,8557
16419,8530,8531,8557
16420,8532,8557,8531
16421,8516,8517,8462
16422,8460,8462,8517
16423,8533,8558,8532
16424,8557,8532,8558
16425,8534,8559,8533
16426,8533,8559,8558
16427,8535,8560,8534
16428,8559,8534,8560
16429,8560,8535,8537
16430,8536,8537,8535
16431,8463,8561,8462
16432,8516,8462,8561
16433,8562,8561,8464
16434,8463,8464,8561
16435,8464,8465,8562
16436,8465,8563,8562
16437,8563,8465,8564
16438,8466,8564,8465
16439,8467,8565,8466
16440,8466,8565,8564
16441,8467,8468,8565
16442,8565,8468,8566
16443,8468,8470,8566
16444,8567,8566,8470
16445,8470,8546,8567
16446,8547,8567,8546
16447,8469,8545,8470
16448,8546,8470,8545
16449,8502,8545,8471
16450,8469,8471,8545
16451,8515,8516,8562
16452,8561,8562,8516
16453,8514,8515,8563
16454,8515,8562,8563
16455,8514,8563,8568
16456,8564,8568,8563
16457,8568,8564,8569
16458,8565,8569,8564
16459,8566,8570,8565
16460,8569,8565,8570
16461,8566,8567,8570
16462,8571,8570,8567
16463,8567,8547,8571
16464,8548,8571,8547
16465,8568,8572,8514
16466,8513,8514,8572
16467,8569,8573,8568
16468,8568,8573,8572
16469,8570,8574,8569
16470,8573,8569,8574
16471,8574,8570,8575
16472,8571,8575,8570
16473,8575,8571,8549
16474,8548,8549,8571
16475,8576,8575,8550
16476,8549,8550,8575
16477,8511,8512,8577
16478,8578,8577,8512
16479,8512,8513,8578
16480,8572,8578,8513
16481,8573,8577,8572
16482,8578,8572,8577
16483,8579,8560,8538
16484,8537,8538,8560
16485,8579,8538,8580
16486,8539,8580,8538
16487,8580,8539,8581
16488,8581,8539,8540
16489,8540,8541,8581
16490,8582,8581,8541
16491,8541,8542,8582
16492,8582,8542,8551
16493,8552,8581,8551
16494,8582,8551,8581
16495,8553,8580,8552
16496,8581,8552,8580
16497,8579,8580,8554
16498,8553,8554,8580
16499,8555,8583,8554
16500,8583,8579,8554
16501,8556,8584,8555
16502,8583,8555,8584
16503,8556,8557,8584
16504,8558,8584,8557
16505,8559,8583,8558
16506,8584,8558,8583
16507,8560,8579,8559
16508,8579,8583,8559
16509,7243,7245,7456
16510,7247,7456,7245
16511,7455,7748,7454
16512,7749,7454,7748
16513,7599,7451,7749
16514,7452,7749,7451
16515,7749,7452,7454
16516,7454,7452,7453
16517,8042,7881,8181
16518,8181,7881,8585
16519,8585,8586,8181
16520,8184,8181,8586
16521,8586,8068,8184
16522,8070,8184,8068
16523,8585,7881,7866
16524,7881,7865,7866
16525,7866,7867,8585
16526,8586,8585,7867
16527,7867,7883,8586
16528,8068,8586,7883
16529,8154,8178,7855
16530,8013,7855,8178
16531,7711,7856,7855
16532,8154,7855,7856
16533,8257,8213,8215
16534,8215,8213,8156
16535,8215,8156,8018
16536,8017,8018,8156
16537,8182,8183,8447
16538,8284,8447,8183
16539,8182,8447,8283
16540,8422,8283,8447
16541,8255,8138,8042
16542,8041,8042,8138
16543,8042,8182,8255
16544,8283,8255,8182
16545,8383,8212,8257
16546,8212,8213,8257
16547,8157,8256,8158
16548,8214,8158,8256
16549,8510,8511,8587
16550,8577,8587,8511
16551,8574,8587,8573
16552,8577,8573,8587
16553,8587,8574,8576
16554,8575,8576,8574
16555,8510,8587,8509
16556,8576,8509,8587
16557,8509,8576,8508
16558,8550,8508,8576
16559,8065,8066,8212
16560,8179,8212,8066
16561,8211,8065,8383
16562,8212,8383,8065
16563,8158,8214,8020
16564,8019,8020,8214
16565,8022,8158,8021
16566,8020,8021,8158
*Elset, elset=Rigid_Rect, generate
   1,  16566,    1
*Nset, nset=Rigid_Surf, generate
   1,  8587,    1
*Elset, elset=_Contact_Surf, internal, generate
1,16566,1
*Surface, type=ELEMENT, name=Contact_Surf
_Contact_Surf, SPOS
*Node
8588,-11.838582,-6.706973,-5.396355
*Nset, nset=Rigid_Rect-RefPt_, internal
8588,
*Nset, nset=RPSet
8588,
*End Part